 vasp.5.4.1 05Feb16 (build Jul 05 2020 17:13:04) complex

 executed on           IFC91_ompi date 2024.07.06  16:28:09

 INCAR:
 POTCAR:   PAW_PBE V 08Apr2002
 POTCAR:   PAW_PBE Mo 08Apr2002
 POTCAR:   PAW_PBE W 08Apr2002
 POTCAR:    PAW_PBE S 17Jan2003

 POTCAR:   PAW_PBE V 08Apr2002
   VRHFIN =V: p6 d4 s1

   TITEL  = PAW_PBE V 08Apr2002
   POMASS =   50.941; ZVAL   =    5.000    mass and valenz
   ENMAX  =  192.543; ENMIN  =  144.408 eV
   QCUT   =   -3.762; QGAM   =    7.524    optimization parameters

   Description
     l     E      TYP  RCUT    TYP  RCUT
     2   .000     23  2.700
     2   .000     23  2.700
     0   .000     23  2.700
     0  2.000     23  2.700
     1   .000     23  2.700
     1  2.000     23  2.700
     3   .000      7   .000

 POTCAR:   PAW_PBE Mo 08Apr2002
   VRHFIN =Mo: 4p5s4d

[...]

 POTCAR:   PAW_PBE W 08Apr2002
   VRHFIN =W : 6s5d

   TITEL  = PAW_PBE W 08Apr2002
   POMASS =  183.850; ZVAL   =    6.000    mass and valenz
   ENMAX  =  223.057; ENMIN  =  167.293 eV
   QCUT   =   -4.049; QGAM   =    8.098    optimization parameters

[...]

 POTCAR:    PAW_PBE S 17Jan2003
   VRHFIN =S : s2p4

   TITEL  = PAW_PBE S 17Jan2003
   POMASS =   32.066; ZVAL   =    6.000    mass and valenz
   ENMAX  =  280.000; ENMIN  =  194.016 eV
   QCUT   =   -4.360; QGAM   =    8.721    optimization parameters

   Description
     l     E      TYP  RCUT    TYP  RCUT
     0   .000     23  1.900
     0   .000     23  1.900
     1   .000     23  1.900
     1   .000     23  1.900
     2   .000     23  1.900

 PAW_PBE V 08Apr2002                    :
 PAW_PBE Mo 08Apr2002                   :
 PAW_PBE W 08Apr2002                    :
  PAW_PBE S 17Jan2003                   :

 POSCAR: crystal structure from VMoWS2 with Hexag
  positions in cartesian coordinates
 exchange correlation table for  LEXCH =        8
   RHO(1)=    0.500       N(1)  =     2000
   RHO(2)=  100.500       N(2)  =     4000

 ion  position               nearest neighbor table
   1  0.667  0.000  0.000-  17 2.34  26 2.34  23 2.36  22 2.36  21 2.36  20 2.36
   2  1.000  0.333  0.000-  25 2.34  10 2.34  13 2.36  12 2.36  22 2.36  23 2.36
   3  0.667  0.333  0.000-  19 2.34  22 2.34  25 2.36  24 2.36  17 2.36  16 2.36
   4  0.333  0.333  0.000-  13 2.34  16 2.34  19 2.36  18 2.36  11 2.36  10 2.36   5 3.34   9 3.34
                             7 3.36   6 3.36
   5  0.333  0.667  0.000-  15 2.34  18 2.34  20 2.36  21 2.36  13 2.36  12 2.36   9 3.34   4 3.34
                             8 3.34   6 3.34
   6  0.667  0.667  0.000-  21 2.34  24 2.34  27 2.36  26 2.36  19 2.36  18 2.36   8 3.34   5 3.34
                             7 3.36   4 3.36
   7  0.000  0.000  0.000-  23 2.34  14 2.34  11 2.36  10 2.36  27 2.36  26 2.36   8 3.34   9 3.34
                             6 3.36   4 3.36
   8  0.000  0.667  0.000-  27 2.34  12 2.34  14 2.36  15 2.36  24 2.36  25 2.36   6 3.34   7 3.34
                             5 3.34   9 3.36
   9  0.333  0.000  0.000-  11 2.34  20 2.34  17 2.36  16 2.36  15 2.36  14 2.36   5 3.34   4 3.34
                             7 3.34   8 3.36
  10  0.111  0.222  0.955-   2 2.34   7 2.36   4 2.36
  11  0.222  0.111  0.045-   9 2.34   7 2.36   4 2.36
  12  0.111  0.556  0.955-   8 2.34   2 2.36   5 2.36
  13  0.222  0.444  0.045-   4 2.34   2 2.36   5 2.36
  14  0.111  0.889  0.955-   7 2.34   8 2.36   9 2.36
  15  0.222  0.777  0.045-   5 2.34   8 2.36   9 2.36
  16  0.444  0.222  0.955-   4 2.34   9 2.36   3 2.36
  17  0.556  0.111  0.045-   1 2.34   9 2.36   3 2.36
  18  0.444  0.556  0.955-   5 2.34   4 2.36   6 2.36
  19  0.556  0.444  0.045-   3 2.34   4 2.36   6 2.36
  20  0.444  0.889  0.955-   9 2.34   5 2.36   1 2.36
  21  0.556  0.777  0.045-   6 2.34   5 2.36   1 2.36
  22  0.777  0.222  0.955-   3 2.34   1 2.36   2 2.36
  23  0.889  0.111  0.045-   7 2.34   1 2.36   2 2.36
  24  0.777  0.556  0.955-   6 2.34   3 2.36   8 2.36
  25  0.889  0.444  0.045-   2 2.34   3 2.36   8 2.36
  26  0.777  0.889  0.955-   1 2.34   6 2.36   7 2.36
  27  0.889  0.777  0.045-   8 2.34   6 2.36   7 2.36

IMPORTANT INFORMATION: All symmetrisations will be switched off!
NOSYMM: (Re-)initialisation of all symmetry stuff for point group C_1.

 KPOINTS: K-POINTS 	#supercell of CrS2 in hexagona

Automatic generation of k-mesh.
Space group operators:
 irot       det(A)        alpha          n_x          n_y          n_z        tau_x        tau_y        tau_z
    1     1.000000     0.000000     1.000000     0.000000     0.000000     0.000000     0.000000     0.000000

 Subroutine IBZKPT returns following result:

 Found     34 irreducible k-points:

 Following reciprocal coordinates:
            Coordinates               Weight
  0.000000  0.000000  0.000000      1.000000
  0.125000  0.000000  0.000000      2.000000
  0.250000  0.000000  0.000000      2.000000
  0.375000  0.000000  0.000000      2.000000
  0.500000  0.000000  0.000000      1.000000
  0.000000  0.125000  0.000000      2.000000
  0.125000  0.125000  0.000000      2.000000
  0.250000  0.125000  0.000000      2.000000
  0.375000  0.125000  0.000000      2.000000
  0.500000  0.125000  0.000000      2.000000
 -0.375000  0.125000  0.000000      2.000000
 -0.250000  0.125000  0.000000      2.000000
 -0.125000  0.125000  0.000000      2.000000
  0.000000  0.250000  0.000000      2.000000
  0.125000  0.250000  0.000000      2.000000
  0.250000  0.250000  0.000000      2.000000
  0.375000  0.250000  0.000000      2.000000
  0.500000  0.250000  0.000000      2.000000
 -0.375000  0.250000  0.000000      2.000000
 -0.250000  0.250000  0.000000      2.000000
 -0.125000  0.250000  0.000000      2.000000
 -0.000000  0.375000  0.000000      2.000000
  0.125000  0.375000  0.000000      2.000000
  0.250000  0.375000  0.000000      2.000000
  0.375000  0.375000  0.000000      2.000000
  0.500000  0.375000  0.000000      2.000000
 -0.375000  0.375000  0.000000      2.000000
 -0.250000  0.375000  0.000000      2.000000
 -0.125000  0.375000  0.000000      2.000000
  0.000000  0.500000  0.000000      1.000000
  0.125000  0.500000  0.000000      2.000000
  0.250000  0.500000  0.000000      2.000000
  0.375000  0.500000  0.000000      2.000000
  0.500000  0.500000  0.000000      1.000000

 Following cartesian coordinates:
            Coordinates               Weight
  0.000000  0.000000  0.000000      1.000000
  0.007209  0.012401  0.000000      2.000000
  0.014418  0.024802  0.000000      2.000000
  0.021626  0.037202  0.000000      2.000000
  0.028835  0.049603  0.000000      1.000000
 -0.007209  0.012401  0.000000      2.000000
  0.000000  0.024802  0.000000      2.000000
  0.007209  0.037202  0.000000      2.000000
  0.014418  0.049603  0.000000      2.000000
  0.021626  0.062004  0.000000      2.000000
 -0.028835 -0.024802  0.000000      2.000000
 -0.021626 -0.012401  0.000000      2.000000
 -0.014418  0.000000  0.000000      2.000000
 -0.014418  0.024802  0.000000      2.000000
 -0.007209  0.037202  0.000000      2.000000
  0.000000  0.049603  0.000000      2.000000
  0.007209  0.062004  0.000000      2.000000
  0.014418  0.074405  0.000000      2.000000
 -0.036044 -0.012401  0.000000      2.000000
 -0.028835  0.000000  0.000000      2.000000
 -0.021626  0.012401  0.000000      2.000000
 -0.021626  0.037202  0.000000      2.000000
 -0.014418  0.049603  0.000000      2.000000
 -0.007209  0.062004  0.000000      2.000000
  0.000000  0.074405  0.000000      2.000000
  0.007209  0.086806  0.000000      2.000000
 -0.043253  0.000000  0.000000      2.000000
 -0.036044  0.012401  0.000000      2.000000
 -0.028835  0.024802  0.000000      2.000000
 -0.028835  0.049603  0.000000      1.000000
 -0.021626  0.062004  0.000000      2.000000
 -0.014418  0.074405  0.000000      2.000000
 -0.007209  0.086806  0.000000      2.000000
  0.000000  0.099206  0.000000      1.000000

 I would recommend the setting:
   dimension x,y,z NGX =    41 NGY =   41 NGZ =  123
 SYSTEM =  unknown system
 POSCAR =  crystal structure from VMoWS2 with Hexag

 Startparameter for this run:
   NWRITE =      2    write-flag & timer
   PREC   = normal    normal or accurate (medium, high low for compatibility)
   ISTART =      0    job   : 0-new  1-cont  2-samecut
   ICHARG =      2    charge: 1-file 2-atom 10-const
   ISPIN  =      1    spin polarized calculation?
   LNONCOLLINEAR =      F non collinear calculations
   LSORBIT =      F    spin-orbit coupling
   INIWAV =      1    electr: 0-lowe 1-rand  2-diag
   LASPH  =      F    aspherical Exc in radial PAW
   METAGGA=      F    non-selfconsistent MetaGGA calc.

 Electronic Relaxation 1
   ENCUT  =  280.0 eV  20.58 Ry    4.54 a.u.  13.68 13.68 40.93*2*pi/ulx,y,z
   ENINI  =  280.0     initial cutoff
   ENAUG  =  373.4 eV  augmentation charge cutoff
   NELM   =     60;   NELMIN=  2; NELMDL= -5     # of ELM steps
   EDIFF  = 0.1E-03   stopping-criterion for ELM
   LREAL  =      F    real-space projection
   NLSPLINE    = F    spline interpolate recip. space projectors
   LCOMPAT=      F    compatible to vasp.4.4
   GGA_COMPAT  = T    GGA compatible to vasp.4.4-vasp.4.6
   LMAXPAW     = -100 max onsite density
   LMAXMIX     =    2 max onsite mixed and CHGCAR
   VOSKOWN=      0    Vosko Wilk Nusair interpolation
   ROPT   =    0.00000   0.00000   0.00000   0.00000
 Ionic relaxation
   EDIFFG = 0.1E-02   stopping-criterion for IOM
   NSW    =    100    number of steps for IOM
   NBLOCK =      1;   KBLOCK =    100    inner block; outer block
   IBRION =      1    ionic relax: 0-MD 1-quasi-New 2-CG
   NFREE  =      0    steps in history (QN), initial steepest desc. (CG)
   ISIF   =      3    stress and relaxation
   IWAVPR =     11    prediction:  0-non 1-charg 2-wave 3-comb
   ISYM   =      0    0-nonsym 1-usesym 2-fastsym
   LCORR  =      T    Harris-Foulkes like correction to forces

   POTIM  = 0.5000    time-step for ionic-motion
   TEIN   =    0.0    initial temperature
   TEBEG  =    0.0;   TEEND  =   0.0 temperature during run
   SMASS  =  -3.00    Nose mass-parameter (am)
   estimated Nose-frequenzy (Omega)   =  0.10E-29 period in steps =****** mass=  -0.230E-26a.u.
   SCALEE = 1.0000    scale energy and forces
   NPACO  =    256;   APACO  = 16.0  distance and # of slots for P.C.
   PSTRESS=    0.0 pullay stress

  Mass of Ions in am
   POMASS =  50.94 95.94183.85 32.07
  Ionic Valenz
   ZVAL   =   5.00  6.00  6.00  6.00
  Atomic Wigner-Seitz radii
  virtual crystal weights
   VCA    =   1.00  1.00  1.00  1.00
   NELECT =     159.0000    total number of electrons
   NUPDOWN=      -1.0000    fix difference up-down

 DOS related values:
   EMIN   =  10.00;   EMAX   =-10.00  energy-range for DOS
   EFERMI =   0.00
   ISMEAR =     0;   SIGMA  =   0.20  broadening in eV -4-tet -1-fermi 0-gaus

 Electronic relaxation 2 (details)
   IALGO  =     38    algorithm
   LDIAG  =      T    sub-space diagonalisation (order eigenvalues)
   LSUBROT=      F    optimize rotation matrix (better conditioning)
   TURBO    =      0    0=normal 1=particle mesh
   IRESTART =      0    0=no restart 2=restart with 2 vectors
   NREBOOT  =      0    no. of reboots
   NMIN     =      0    reboot dimension
   EREF     =   0.00    reference energy to select bands
[...]
     -3.85900      3.35900     28.66200         0.343157     -0.700393     -2.132065
     -1.92100      3.35900      1.33800        -0.516571     -0.680048      2.178069
     -6.74900      5.03900     28.66200         0.130146      0.002009     -3.000995
     -4.81100      5.03900      1.33800        -0.242566      0.002158      2.862198
      1.92100      3.35900     28.66200         0.629414      0.530065     -2.127945
      3.85900      3.35900      1.33800         0.239867      0.525040      1.424595
     -0.96900      5.03900     28.66200         0.120185      0.002468     -2.944157
      0.96900      5.03900      1.33800         0.730680      0.002054      2.137280
     -3.85900      6.71900     28.66200         0.340401      0.700964     -2.135482
     -1.92100      6.71900      1.33800        -0.513787      0.679295      2.181849
      4.81100      5.03900     28.66200         0.065196     -0.001283     -0.737526
      6.74900      5.03900      1.33800        -0.747205     -0.001091      1.470851
      1.92100      6.71900     28.66200         0.632155     -0.529931     -2.124335
      3.85900      6.71900      1.33800         0.238096     -0.524074      1.421553
     -0.96900      8.39900     28.66200        -0.653253      0.173854     -2.092617
      0.96900      8.39900      1.33800        -0.072213      0.106398      2.866581
    total drift:                               -0.000044      0.000134      0.000130

  FREE ENERGIE OF THE ION-ELECTRON SYSTEM (eV)
  free  energy   TOTEN  =      -186.82748962 eV

  energy  without entropy=     -186.48772933  energy(sigma->0) =     -186.65760948

 Quasi-Newton relaxation of ions (Broydens 2nd method)
  g(Force)  = 0.473E+01   g(Stress)= 0.351E+00

 Reset! Starting new Quasi-Newton update for ions

[...]

 d Force = 0.2396459E+01[ 0.578E-01, 0.474E+01]  d Energy = 0.1820034E+01 0.576E+00
 d Force = 0.9606139E+03[ 0.943E+03, 0.978E+03]  d Ewald  = 0.2510850E+04-0.155E+04

[...]

 retain information from N=  1 steps
 eigenvalues of (default step * inverse Hessian matrix)
  average eigenvalue of G=   0.2425
 eigenvalue spectrum of G is  0.2425

[...]

 d Force = 0.3271857E-01[ 0.320E-01, 0.334E-01]  d Energy = 0.1090374E+01-0.106E+01
 d Force =-0.3086748E+01[-0.316E+01,-0.301E+01]  d Ewald  =-0.1926232E+04 0.192E+04

[...]

 d Force = 0.4745133E+00[ 0.416E+00, 0.533E+00]  d Energy = 0.9997315E+00-0.525E+00
 d Force = 0.4125662E+03[ 0.422E+03, 0.403E+03]  d Ewald  =-0.1541603E+04 0.195E+04

[...]

 d Force = 0.4597726E+00[ 0.265E+00, 0.655E+00]  d Energy = 0.7090032E+00-0.249E+00
 d Force = 0.5591092E+03[ 0.573E+03, 0.545E+03]  d Ewald  =-0.1790022E+04 0.235E+04

[...]

 d Force = 0.1195107E-01[ 0.113E-01, 0.126E-01]  d Energy = 0.1355329E-01-0.160E-02
 d Force =-0.4175087E+01[-0.416E+01,-0.419E+01]  d Ewald  = 0.1110506E+03-0.115E+03

[...]

 d Force = 0.1266188E-02[ 0.115E-02, 0.138E-02]  d Energy = 0.2338684E-02-0.107E-02
 d Force = 0.2060142E+01[ 0.206E+01, 0.206E+01]  d Ewald  = 0.9418098E+02-0.921E+02

[...]

 d Force = 0.3170017E-02[ 0.253E-02, 0.381E-02]  d Energy = 0.3501652E-02-0.332E-03
 d Force =-0.1954245E+02[-0.195E+02,-0.196E+02]  d Ewald  = 0.1223555E+03-0.142E+03

[...]

 FEWALD executed in parallel

[...]

 eigenvalue-minimisations  : 10480
 total energy-change (2. order) :-0.3269228E-03  (-0.2569869E-03)
 number of electron     159.0000106 magnetization
 augmentation part       -4.2778484 magnetization

[...]

 Broyden mixing:
  rms(total) = 0.10425E-01    rms(broyden)= 0.10416E-01
  rms(prec ) = 0.11415E-01
  weight for this iteration     100.00

 eigenvalues of (default mixing * dielectric matrix)
  average eigenvalue GAMMA=   0.4581
  0.7616  0.1546

[...]

----------------------------------------- Iteration   17(   4)  ---------------------------------------

 eigenvalue-minimisations  :  8200
 total energy-change (2. order) : 0.1588578E-04  (-0.4886849E-04)
 number of electron     159.0000106 magnetization
 augmentation part       -4.2564567 magnetization

 Free energy of the ion-electron system (eV)
  alpha Z        PSCENC =        88.76105081
  Ewald energy   TEWEN  =     44014.70680381
  -Hartree energ DENC   =    -50022.50093554
  -exchange      EXHF   =         0.00000000
  -V(xc)+E(xc)   XCENC  =      -233.67100821
  PAW double counting   =      4086.89679639    -3502.90832070
  entropy T*S    EENTRO =        -0.20298892
  eigenvalues    EBANDS =     -1384.26567761
  atomic energy  EATOM  =      6761.44252427
  Solvation  Ediel_sol  =         0.00000000
  free energy    TOTEN  =      -191.74175570 eV

  energy without entropy =     -191.53876678  energy(sigma->0) =     -191.64026124

 average (electrostatic) potential at core
  the test charge radii are     1.2064  1.2296  1.1823  0.9698
  (the norm of the test charge is              1.0000)
       1 -50.0458       2 -50.0378       3 -50.0365       4 -47.0856       5 -47.0855
       6 -47.0851       7 -49.4371       8 -49.4366       9 -49.4375      10 -94.8424
      11 -95.1269      12 -94.8441      13 -95.0746      14 -95.1111      15 -95.1282
      16 -94.8411      17 -94.7275      18 -95.0761      19 -95.0745      20 -94.8432
      21 -95.0754      22 -94.8714      23 -94.7293      24 -94.8452      25 -94.7310
      26 -94.8455      27 -95.1292

 E-fermi :  -3.1727     XC(G=0):  -2.5502     alpha+bet : -2.3476

[...]

 k-point    34 :       0.5000    0.5000    0.0000
  band No.  band energies     occupation
      1     -17.4858      2.00000
      2     -17.2805      2.00000
      3     -16.7051      2.00000
      4     -16.6489      2.00000
      5     -16.5000      2.00000
      6     -16.4040      2.00000
      7     -16.1666      2.00000
      8     -16.1657      2.00000
      9     -16.1640      2.00000
     10     -16.0234      2.00000
     11     -15.9315      2.00000
     12     -15.7367      2.00000
     13     -15.7247      2.00000
     14     -15.6740      2.00000
     15     -15.6585      2.00000
     16     -15.5403      2.00000
     17     -15.5240      2.00000
     18     -15.4861      2.00000
     19      -9.7638      2.00000
     20      -9.2755      2.00000
     21      -9.2638      2.00000
     22      -9.0359      2.00000
     23      -8.8965      2.00000
     24      -8.8592      2.00000
     25      -8.5809      2.00000
     26      -8.5081      2.00000
     27      -8.3857      2.00000
     28      -8.2840      2.00000
     29      -8.2381      2.00000
     30      -8.1475      2.00000
     31      -8.0815      2.00000
     32      -7.9611      2.00000
     33      -7.9598      2.00000
     34      -7.8042      2.00000
     35      -7.7367      2.00000
     36      -7.6679      2.00000
     37      -7.5992      2.00000
     38      -7.3317      2.00000
     39      -7.3198      2.00000
     40      -7.2712      2.00000
     41      -7.0381      2.00000
     42      -7.0120      2.00000
     43      -6.9131      2.00000
     44      -6.8982      2.00000
     45      -6.8754      2.00000
     46      -6.7458      2.00000
     47      -6.6808      2.00000
     48      -6.6304      2.00000
     49      -6.6134      2.00000
     50      -6.5716      2.00000
     51      -6.3442      2.00000
     52      -6.3218      2.00000
     53      -6.2273      2.00000
     54      -6.1651      2.00000
     55      -6.1348      2.00000
     56      -6.0881      2.00000
     57      -6.0600      2.00000
     58      -5.9423      2.00000
     59      -5.9260      2.00000
     60      -5.8217      2.00000
[...]
    106      -0.2813      0.00000
    107      -0.2567      0.00000
    108      -0.1336      0.00000
    109       0.0257      0.00000
    110       0.3275      0.00000
    111       0.3929      0.00000
    112       0.5533      0.00000
    113       0.6120      0.00000
    114       0.8887      0.00000
    115       1.1076      0.00000
    116       1.3501      0.00000
    117       1.3643      0.00000
    118       2.2290      0.00000
    119       2.2423      0.00000
    120       2.3695      0.00000

 soft charge-density along one line, spin component           1
         0         1         2         3         4         5         6         7         8         9
 total charge-density along one line

------------------------ aborting loop because EDIFF is reached ----------------------------------------

  FORCE on cell =-STRESS in cart. coord.  units (eV):
  Direction    XX          YY          ZZ          XY          YZ          ZX
  Alpha Z    88.76105    88.76105    88.76105
  Ewald   48963.43446 48963.34453-53912.08894     0.11438     0.00439    -0.09305
  Hartree 49681.21817 49681.20016-49339.08621     0.06114    -0.00751    -0.01926
  E(xc)    -609.88899  -609.88487  -616.95917    -0.00063    -0.00016     0.00191
  Local  ************************100694.43856    -0.16521     0.01480     0.11498
  n-local  1214.24022  1214.19858  1251.59907    -0.02100     0.00419    -0.00888
  augment  -212.47532  -212.46938  -215.28149     0.00741     0.00198    -0.00039
  Kinetic  2014.73489  2014.72103  2046.68617     0.00858    -0.01846     0.00419
  Fock        0.00000     0.00000     0.00000     0.00000     0.00000     0.00000
  Total       0.21034     0.20994    -1.93095     0.00466    -0.00076    -0.00050
  in kB       0.13973     0.13946    -1.28267     0.00310    -0.00050    -0.00033

 VOLUME and BASIS-vectors are now :
  energy-cutoff  :      280.00
  volume of cell :     2411.93
      direct lattice vectors                 reciprocal lattice vectors
     8.343827285  4.817602716  0.000000000     0.059925736  0.103783985  0.000000000
    -8.343992614  4.817890756  0.000000000    -0.059922154  0.103781928  0.000000000
     0.000000000  0.000000000 30.000000000     0.000000000  0.000000000  0.033333333

  length of vectors
     9.634767755  9.635054960 30.000000000     0.119842436  0.119838863  0.033333333

 FORCES acting on ions
    electron-ion (+dipol)            ewald-force                    non-local-force                 convergence-correction
   0.583E+01 -.994E+01 0.118E+00   -.606E+01 0.103E+02 -.220E+00   0.225E+00 -.376E+00 0.104E+00   0.561E-02 -.213E-01 -.733E-03
   0.570E+01 0.992E+01 0.203E+00   -.592E+01 -.104E+02 -.310E+00   0.209E+00 0.373E+00 0.107E+00   0.458E-02 0.802E-01 0.800E-04
   -.114E+02 0.102E+00 0.233E+00   0.119E+02 -.141E+00 -.340E+00   -.429E+00 0.130E-01 0.107E+00   -.832E-01 0.303E-01 0.987E-03
   -.143E+02 0.246E+02 0.181E+01   0.137E+02 -.238E+02 -.206E+01   0.515E+00 -.893E+00 0.242E+00   0.115E-01 0.166E-01 0.470E-02
   0.284E+02 0.103E+00 0.180E+01   -.274E+02 -.175E-01 -.205E+01   -.103E+01 0.362E-02 0.241E+00   0.190E-01 -.818E-01 0.162E-02
   -.143E+02 -.245E+02 0.184E+01   0.137E+02 0.236E+02 -.209E+01   0.515E+00 0.900E+00 0.240E+00   0.780E-01 -.652E-01 0.197E-02
   0.291E+02 -.143E+00 -.348E+00   -.285E+02 0.115E+00 0.345E+00   -.756E+00 -.718E-02 0.959E-02   0.953E-01 0.318E-01 -.387E-02
   -.146E+02 0.253E+02 -.331E+00   0.143E+02 -.246E+02 0.329E+00   0.378E+00 -.662E+00 0.100E-01   -.170E-01 0.154E-01 -.561E-02
   -.145E+02 -.253E+02 -.268E+00   0.142E+02 0.247E+02 0.264E+00   0.378E+00 0.647E+00 0.941E-02   -.745E-01 -.514E-01 -.408E-02
   0.481E+01 0.101E+02 0.548E+03   -.568E+01 -.102E+02 -.552E+03   0.798E+00 0.114E+00 0.419E+01   0.727E-01 0.462E-01 -.304E-01
   0.693E+01 -.120E+02 -.580E+03   -.638E+01 0.111E+02 0.584E+03   -.563E+00 0.966E+00 -.376E+01   0.320E-02 0.101E-01 -.639E-02
   0.630E+01 0.924E+01 0.548E+03   -.597E+01 -.100E+02 -.552E+03   -.302E+00 0.757E+00 0.418E+01   -.274E-01 0.453E-01 -.234E-01
   0.107E+02 0.186E+02 -.590E+03   -.107E+02 -.186E+02 0.593E+03   -.467E-01 -.761E-01 -.383E+01   0.340E-01 0.437E-01 0.195E-01
   -.635E-02 -.768E-01 0.636E+03   0.185E-02 0.842E-01 -.640E+03   0.476E-03 -.424E-02 0.387E+01   0.433E-02 -.417E-02 0.688E-02
   -.138E+02 0.769E-02 -.580E+03   0.127E+02 0.319E-01 0.584E+03   0.112E+01 -.716E-02 -.376E+01   -.259E-01 -.334E-01 0.255E-02
   -.112E+02 0.814E+00 0.547E+03   0.117E+02 -.172E+00 -.552E+03   -.496E+00 -.631E+00 0.420E+01   -.607E-01 -.145E-01 -.814E-02
   -.404E+01 -.741E+01 -.526E+03   0.476E+01 0.837E+01 0.530E+03   -.549E+00 -.952E+00 -.414E+01   -.178E+00 -.185E-01 0.123E+00
   -.399E-01 0.806E-01 0.636E+03   0.134E-01 -.520E-01 -.639E+03   -.238E-03 0.405E-02 0.348E+01   0.267E-01 -.325E-01 0.103E-01
   -.216E+02 0.872E-01 -.589E+03   0.215E+02 -.830E-01 0.593E+03   0.885E-01 0.348E-02 -.383E+01   -.275E-01 -.685E-02 -.300E-02
   0.641E+01 -.921E+01 0.548E+03   -.603E+01 0.101E+02 -.552E+03   -.296E+00 -.747E+00 0.420E+01   -.926E-01 -.159E+00 -.119E+00
   0.107E+02 -.185E+02 -.590E+03   -.108E+02 0.186E+02 0.593E+03   -.437E-01 0.780E-01 -.383E+01   0.887E-01 -.152E+00 0.117E+00
   0.100E+00 -.546E-01 0.523E+03   -.207E-02 -.613E-01 -.526E+03   0.244E-02 -.384E-02 0.407E+01   -.982E-01 0.116E+00 -.146E+00
   0.847E+01 -.212E+00 -.526E+03   -.967E+01 0.880E-01 0.530E+03   0.110E+01 0.283E-02 -.413E+01   0.111E+00 0.118E+00 0.142E+00
   -.112E+02 -.773E+00 0.548E+03   0.117E+02 0.114E+00 -.552E+03   -.506E+00 0.641E+00 0.418E+01   -.188E-01 0.196E-01 -.250E-02
   -.427E+01 0.738E+01 -.527E+03   0.487E+01 -.838E+01 0.531E+03   -.549E+00 0.958E+00 -.413E+01   -.622E-01 0.537E-01 0.398E-01
   0.477E+01 -.101E+02 0.548E+03   -.576E+01 0.102E+02 -.552E+03   0.800E+00 -.118E+00 0.419E+01   0.188E+00 -.798E-02 -.121E+00
   0.687E+01 0.120E+02 -.580E+03   -.637E+01 -.110E+02 0.584E+03   -.559E+00 -.973E+00 -.376E+01   0.457E-01 -.336E-02 0.117E-02
   -.240E-01 0.139E-01 -.248E+01   -.231E-13 -.135E-12 -.227E-12   0.261E-02 0.109E-01 0.249E+01   0.220E-01 -.253E-01 -.347E-02

 POSITION                                       TOTAL-FORCE (eV/Angst)
      5.59369      3.15865     -0.00837         0.000120      0.007156      0.001710
      5.59250      6.47635     -0.00879        -0.009497     -0.014307     -0.000228
      2.72038      4.81855     -0.00882         0.018006      0.004788      0.001469
     -0.10548      3.39384     -0.00335        -0.008019      0.012400     -0.002135
     -2.57097      4.81740     -0.00333         0.014205      0.007360     -0.002437
     -0.10531      6.24124     -0.00343        -0.014062     -0.008083     -0.002294
      0.22046     -0.00180      0.00609         0.005435     -0.003431      0.002371
     -5.67318      3.40167      0.00607        -0.003079      0.002710      0.001925
      2.67134      1.41352      0.00592        -0.001882     -0.007470      0.001533
     -0.94471      1.60141     28.51880         0.003182     -0.001208      0.016572
      0.90256      1.64750      1.56933        -0.008513      0.013418     -0.003390
     -3.70286      3.19409     28.51819        -0.001941      0.002210      0.015733
     -1.87137      3.18163      1.59577        -0.000417      0.000718      0.002104
     -6.48987      4.81682     28.26547         0.000285     -0.000963     -0.026428
     -4.58675      4.81691      1.56996         0.015589     -0.000955     -0.001718
      1.86635      3.22447     28.51877         0.000081     -0.002878      0.017608
      3.70529      3.20593      1.42106        -0.002798     -0.011152     -0.019733
     -0.92720      4.81725     28.28363        -0.000067      0.000119     -0.030853
      0.96125      4.81715      1.59560        -0.000518      0.000773      0.002090
     -3.70282      6.44047     28.51834        -0.000148      0.002568      0.018366
     -1.87140      6.45273      1.59566        -0.001880      0.003318      0.002688
      4.63559      4.81716     28.59752         0.002151     -0.003251      0.004415
      6.49535      4.81702      1.42177         0.010211     -0.002933     -0.017096
      1.86617      6.40946     28.51757        -0.001327      0.002262      0.014229
      3.70543      6.42788      1.42231        -0.005617      0.010275     -0.011119
     -0.94519      8.03264     28.51777        -0.001738      0.000492      0.015857
      0.90259      7.98637      1.57048        -0.007762     -0.013935     -0.001240
    total drift:                                0.000580     -0.000415      0.000748

  FREE ENERGIE OF THE ION-ELECTRON SYSTEM (eV)
  free  energy   TOTEN  =      -191.74175570 eV

  energy  without entropy=     -191.53876678  energy(sigma->0) =     -191.64026124

 d Force = 0.2144350E-03[ 0.570E-04, 0.372E-03]  d Energy = 0.2500664E-03-0.356E-04
 d Force =-0.5563982E+01[-0.557E+01,-0.556E+01]  d Ewald  =-0.4554773E+02 0.400E+02

 Quasi-Newton relaxation of ions (Broydens 2nd method)
  g(Force)  = 0.334E-03   g(Stress)= 0.158E-03

 retain information from N=  1 steps
 eigenvalues of (default step * inverse Hessian matrix)
  average eigenvalue of G=   0.5731
 eigenvalue spectrum of G is  0.5731

 reached required accuracy - stopping structural energy minimisation