 vasp.5.4.1 05Feb16 (build Jul 05 2020 17:13:04) complex

 executed on           IFC91_ompi date 2024.07.05  03:18:39

 INCAR:
 POTCAR:   PAW_PBE V 08Apr2002
 POTCAR:   PAW_PBE Mo 08Apr2002
 POTCAR:   PAW_PBE W 08Apr2002
 POTCAR:    PAW_PBE S 17Jan2003

 POTCAR:   PAW_PBE V 08Apr2002
   VRHFIN =V: p6 d4 s1

   TITEL  = PAW_PBE V 08Apr2002
   POMASS =   50.941; ZVAL   =    5.000    mass and valenz
   ENMAX  =  192.543; ENMIN  =  144.408 eV
   QCUT   =   -3.762; QGAM   =    7.524    optimization parameters

   Description
     l     E      TYP  RCUT    TYP  RCUT
     2   .000     23  2.700
     2   .000     23  2.700
     0   .000     23  2.700
     0  2.000     23  2.700
     1   .000     23  2.700
     1  2.000     23  2.700
     3   .000      7   .000

 POTCAR:   PAW_PBE Mo 08Apr2002
   VRHFIN =Mo: 4p5s4d

[...]

 POTCAR:   PAW_PBE W 08Apr2002
   VRHFIN =W : 6s5d

   TITEL  = PAW_PBE W 08Apr2002
   POMASS =  183.850; ZVAL   =    6.000    mass and valenz
   ENMAX  =  223.057; ENMIN  =  167.293 eV
   QCUT   =   -4.049; QGAM   =    8.098    optimization parameters

[...]

 POTCAR:    PAW_PBE S 17Jan2003
   VRHFIN =S : s2p4

   TITEL  = PAW_PBE S 17Jan2003
   POMASS =   32.066; ZVAL   =    6.000    mass and valenz
   ENMAX  =  280.000; ENMIN  =  194.016 eV
   QCUT   =   -4.360; QGAM   =    8.721    optimization parameters

   Description
     l     E      TYP  RCUT    TYP  RCUT
     0   .000     23  1.900
     0   .000     23  1.900
     1   .000     23  1.900
     1   .000     23  1.900
     2   .000     23  1.900

 PAW_PBE V 08Apr2002                    :
 PAW_PBE Mo 08Apr2002                   :
 PAW_PBE W 08Apr2002                    :
  PAW_PBE S 17Jan2003                   :

 POSCAR: crystal structure from VMoWS2 with Hexag
  positions in cartesian coordinates
 exchange correlation table for  LEXCH =        8
   RHO(1)=    0.500       N(1)  =     2000
   RHO(2)=  100.500       N(2)  =     4000

 ion  position               nearest neighbor table
   1  0.000  0.000  0.000-  23 2.34  14 2.34  11 2.36  10 2.36  27 2.36  26 2.36
   2  0.333  0.000  0.000-  11 2.34  20 2.34  17 2.36  16 2.36  15 2.36  14 2.36
   3  0.000  0.667  0.000-  27 2.34  12 2.34  14 2.36  15 2.36  24 2.36  25 2.36
   4  0.667  0.333  0.000-  19 2.34  22 2.34  25 2.36  24 2.36  17 2.36  16 2.36   7 3.34   5 3.34
                             6 3.34   8 3.34
   5  0.667  0.667  0.000-  21 2.34  24 2.34  27 2.36  26 2.36  19 2.36  18 2.36   6 3.34   4 3.34
                             9 3.34   8 3.36
   6  0.667  0.000  0.000-  17 2.34  26 2.34  23 2.36  22 2.36  21 2.36  20 2.36   5 3.34   4 3.34
                             7 3.36   9 3.36
   7  1.000  0.333  0.000-  25 2.34  10 2.34  13 2.36  12 2.36  22 2.36  23 2.36   4 3.34   8 3.34
                             6 3.36   9 3.36
   8  0.333  0.333  0.000-  13 2.34  16 2.34  19 2.36  18 2.36  11 2.36  10 2.36   9 3.34   7 3.34
                             4 3.34   5 3.36
   9  0.333  0.667  0.000-  15 2.34  18 2.34  20 2.36  21 2.36  13 2.36  12 2.36   8 3.34   5 3.34
                             6 3.36   7 3.36
  10  0.111  0.222  0.955-   7 2.34   1 2.36   8 2.36
  11  0.222  0.111  0.045-   2 2.34   1 2.36   8 2.36
  12  0.111  0.556  0.955-   3 2.34   7 2.36   9 2.36
  13  0.222  0.444  0.045-   8 2.34   7 2.36   9 2.36
  14  0.111  0.889  0.955-   1 2.34   3 2.36   2 2.36
  15  0.222  0.777  0.045-   9 2.34   3 2.36   2 2.36
  16  0.444  0.222  0.955-   8 2.34   2 2.36   4 2.36
  17  0.556  0.111  0.045-   6 2.34   2 2.36   4 2.36
  18  0.444  0.556  0.955-   9 2.34   8 2.36   5 2.36
  19  0.556  0.444  0.045-   4 2.34   8 2.36   5 2.36
  20  0.444  0.889  0.955-   2 2.34   9 2.36   6 2.36
  21  0.556  0.777  0.045-   5 2.34   9 2.36   6 2.36
  22  0.777  0.222  0.955-   4 2.34   6 2.36   7 2.36
  23  0.889  0.111  0.045-   1 2.34   6 2.36   7 2.36
  24  0.777  0.556  0.955-   5 2.34   4 2.36   3 2.36
  25  0.889  0.444  0.045-   7 2.34   4 2.36   3 2.36
  26  0.777  0.889  0.955-   6 2.34   5 2.36   1 2.36
  27  0.889  0.777  0.045-   3 2.34   5 2.36   1 2.36

IMPORTANT INFORMATION: All symmetrisations will be switched off!
NOSYMM: (Re-)initialisation of all symmetry stuff for point group C_1.

 KPOINTS: K-POINTS 	#supercell of CrS2 in hexagona

Automatic generation of k-mesh.
Space group operators:
 irot       det(A)        alpha          n_x          n_y          n_z        tau_x        tau_y        tau_z
    1     1.000000     0.000000     1.000000     0.000000     0.000000     0.000000     0.000000     0.000000

 Subroutine IBZKPT returns following result:

 Found     34 irreducible k-points:

 Following reciprocal coordinates:
            Coordinates               Weight
  0.000000  0.000000  0.000000      1.000000
  0.125000  0.000000  0.000000      2.000000
  0.250000  0.000000  0.000000      2.000000
  0.375000  0.000000  0.000000      2.000000
  0.500000  0.000000  0.000000      1.000000
  0.000000  0.125000  0.000000      2.000000
  0.125000  0.125000  0.000000      2.000000
  0.250000  0.125000  0.000000      2.000000
  0.375000  0.125000  0.000000      2.000000
  0.500000  0.125000  0.000000      2.000000
 -0.375000  0.125000  0.000000      2.000000
 -0.250000  0.125000  0.000000      2.000000
 -0.125000  0.125000  0.000000      2.000000
  0.000000  0.250000  0.000000      2.000000
  0.125000  0.250000  0.000000      2.000000
  0.250000  0.250000  0.000000      2.000000
  0.375000  0.250000  0.000000      2.000000
  0.500000  0.250000  0.000000      2.000000
 -0.375000  0.250000  0.000000      2.000000
 -0.250000  0.250000  0.000000      2.000000
 -0.125000  0.250000  0.000000      2.000000
 -0.000000  0.375000  0.000000      2.000000
  0.125000  0.375000  0.000000      2.000000
  0.250000  0.375000  0.000000      2.000000
  0.375000  0.375000  0.000000      2.000000
  0.500000  0.375000  0.000000      2.000000
 -0.375000  0.375000  0.000000      2.000000
 -0.250000  0.375000  0.000000      2.000000
 -0.125000  0.375000  0.000000      2.000000
  0.000000  0.500000  0.000000      1.000000
  0.125000  0.500000  0.000000      2.000000
  0.250000  0.500000  0.000000      2.000000
  0.375000  0.500000  0.000000      2.000000
  0.500000  0.500000  0.000000      1.000000

 Following cartesian coordinates:
            Coordinates               Weight
  0.000000  0.000000  0.000000      1.000000
  0.007209  0.012401  0.000000      2.000000
  0.014418  0.024802  0.000000      2.000000
  0.021626  0.037202  0.000000      2.000000
  0.028835  0.049603  0.000000      1.000000
 -0.007209  0.012401  0.000000      2.000000
  0.000000  0.024802  0.000000      2.000000
  0.007209  0.037202  0.000000      2.000000
  0.014418  0.049603  0.000000      2.000000
  0.021626  0.062004  0.000000      2.000000
 -0.028835 -0.024802  0.000000      2.000000
 -0.021626 -0.012401  0.000000      2.000000
 -0.014418  0.000000  0.000000      2.000000
 -0.014418  0.024802  0.000000      2.000000
 -0.007209  0.037202  0.000000      2.000000
  0.000000  0.049603  0.000000      2.000000
  0.007209  0.062004  0.000000      2.000000
  0.014418  0.074405  0.000000      2.000000
 -0.036044 -0.012401  0.000000      2.000000
 -0.028835  0.000000  0.000000      2.000000
 -0.021626  0.012401  0.000000      2.000000
 -0.021626  0.037202  0.000000      2.000000
 -0.014418  0.049603  0.000000      2.000000
 -0.007209  0.062004  0.000000      2.000000
  0.000000  0.074405  0.000000      2.000000
  0.007209  0.086806  0.000000      2.000000
 -0.043253  0.000000  0.000000      2.000000
 -0.036044  0.012401  0.000000      2.000000
 -0.028835  0.024802  0.000000      2.000000
 -0.028835  0.049603  0.000000      1.000000
 -0.021626  0.062004  0.000000      2.000000
 -0.014418  0.074405  0.000000      2.000000
 -0.007209  0.086806  0.000000      2.000000
  0.000000  0.099206  0.000000      1.000000

 I would recommend the setting:
   dimension x,y,z NGX =    41 NGY =   41 NGZ =  123
 SYSTEM =  unknown system
 POSCAR =  crystal structure from VMoWS2 with Hexag

 Startparameter for this run:
   NWRITE =      2    write-flag & timer
   PREC   = normal    normal or accurate (medium, high low for compatibility)
   ISTART =      0    job   : 0-new  1-cont  2-samecut
   ICHARG =      2    charge: 1-file 2-atom 10-const
   ISPIN  =      1    spin polarized calculation?
   LNONCOLLINEAR =      F non collinear calculations
   LSORBIT =      F    spin-orbit coupling
   INIWAV =      1    electr: 0-lowe 1-rand  2-diag
   LASPH  =      F    aspherical Exc in radial PAW
   METAGGA=      F    non-selfconsistent MetaGGA calc.

 Electronic Relaxation 1
   ENCUT  =  280.0 eV  20.58 Ry    4.54 a.u.  13.68 13.68 40.93*2*pi/ulx,y,z
   ENINI  =  280.0     initial cutoff
   ENAUG  =  373.4 eV  augmentation charge cutoff
   NELM   =     60;   NELMIN=  2; NELMDL= -5     # of ELM steps
   EDIFF  = 0.1E-03   stopping-criterion for ELM
   LREAL  =      F    real-space projection
   NLSPLINE    = F    spline interpolate recip. space projectors
   LCOMPAT=      F    compatible to vasp.4.4
   GGA_COMPAT  = T    GGA compatible to vasp.4.4-vasp.4.6
   LMAXPAW     = -100 max onsite density
   LMAXMIX     =    2 max onsite mixed and CHGCAR
   VOSKOWN=      0    Vosko Wilk Nusair interpolation
   ROPT   =    0.00000   0.00000   0.00000   0.00000
 Ionic relaxation
   EDIFFG = 0.1E-02   stopping-criterion for IOM
   NSW    =    100    number of steps for IOM
   NBLOCK =      1;   KBLOCK =    100    inner block; outer block
   IBRION =      1    ionic relax: 0-MD 1-quasi-New 2-CG
   NFREE  =      0    steps in history (QN), initial steepest desc. (CG)
   ISIF   =      3    stress and relaxation
   IWAVPR =     11    prediction:  0-non 1-charg 2-wave 3-comb
   ISYM   =      0    0-nonsym 1-usesym 2-fastsym
   LCORR  =      T    Harris-Foulkes like correction to forces

   POTIM  = 0.5000    time-step for ionic-motion
   TEIN   =    0.0    initial temperature
   TEBEG  =    0.0;   TEEND  =   0.0 temperature during run
   SMASS  =  -3.00    Nose mass-parameter (am)
   estimated Nose-frequenzy (Omega)   =  0.10E-29 period in steps =****** mass=  -0.230E-26a.u.
   SCALEE = 1.0000    scale energy and forces
   NPACO  =    256;   APACO  = 16.0  distance and # of slots for P.C.
   PSTRESS=    0.0 pullay stress

  Mass of Ions in am
   POMASS =  50.94 95.94183.85 32.07
  Ionic Valenz
   ZVAL   =   5.00  6.00  6.00  6.00
  Atomic Wigner-Seitz radii
  virtual crystal weights
   VCA    =   1.00  1.00  1.00  1.00
   NELECT =     159.0000    total number of electrons
   NUPDOWN=      -1.0000    fix difference up-down

 DOS related values:
   EMIN   =  10.00;   EMAX   =-10.00  energy-range for DOS
   EFERMI =   0.00
   ISMEAR =     0;   SIGMA  =   0.20  broadening in eV -4-tet -1-fermi 0-gaus

 Electronic relaxation 2 (details)
   IALGO  =     38    algorithm
   LDIAG  =      T    sub-space diagonalisation (order eigenvalues)
   LSUBROT=      F    optimize rotation matrix (better conditioning)
   TURBO    =      0    0=normal 1=particle mesh
   IRESTART =      0    0=no restart 2=restart with 2 vectors
   NREBOOT  =      0    no. of reboots
   NMIN     =      0    reboot dimension
   EREF     =   0.00    reference energy to select bands
[...]
     -6.74900      5.03900     28.66200         0.059437     -0.012558     -0.764372
     -4.81100      5.03900      1.33800        -0.747293     -0.005196      1.444075
      1.92100      3.35900     28.66200         0.343877     -0.710540     -2.164195
      3.85900      3.35900      1.33800        -0.516151     -0.681171      2.147397
     -0.96900      5.03900     28.66200         0.044880     -0.141159     -2.978528
      0.96900      5.03900      1.33800        -0.175283     -0.145374      2.897586
     -3.85900      6.71900     28.66200        -0.662020     -0.174341     -2.120249
     -1.92100      6.71900      1.33800        -0.220887     -0.119528      2.892319
      4.81100      5.03900     28.66200         0.203986      0.144135     -2.889583
      6.74900      5.03900      1.33800         0.646474      0.156418      2.144308
      1.92100      6.71900     28.66200         0.499181      0.700733     -2.140442
      3.85900      6.71900      1.33800        -0.349204      0.684539      2.191722
     -0.96900      8.39900     28.66200         0.541370      0.677621     -2.136620
      0.96900      8.39900      1.33800         0.330343      0.677783      1.429293
    total drift:                               -0.000065      0.000041      0.000011

  FREE ENERGIE OF THE ION-ELECTRON SYSTEM (eV)
  free  energy   TOTEN  =      -186.82628284 eV

  energy  without entropy=     -186.48513918  energy(sigma->0) =     -186.65571101

 Quasi-Newton relaxation of ions (Broydens 2nd method)
  g(Force)  = 0.474E+01   g(Stress)= 0.349E+00

 Reset! Starting new Quasi-Newton update for ions

[...]

 d Force = 0.2405216E+01[ 0.673E-01, 0.474E+01]  d Energy = 0.1829306E+01 0.576E+00
 d Force = 0.9608816E+03[ 0.943E+03, 0.979E+03]  d Ewald  = 0.2511232E+04-0.155E+04

[...]

 retain information from N=  1 steps
 eigenvalues of (default step * inverse Hessian matrix)
  average eigenvalue of G=   0.2410
 eigenvalue spectrum of G is  0.2410

[...]

 d Force = 0.3689941E-01[ 0.364E-01, 0.374E-01]  d Energy = 0.1094890E+01-0.106E+01
 d Force =-0.3276305E+01[-0.335E+01,-0.320E+01]  d Ewald  =-0.1923136E+04 0.192E+04

[...]

 d Force = 0.4987590E+00[ 0.448E+00, 0.550E+00]  d Energy = 0.1025082E+01-0.526E+00
 d Force = 0.4115213E+03[ 0.421E+03, 0.402E+03]  d Ewald  =-0.1538243E+04 0.195E+04

[...]

 d Force = 0.1474425E+00[ 0.126E+00, 0.169E+00]  d Energy = 0.1533052E+00-0.586E-02
 d Force =-0.1046230E+02[-0.100E+02,-0.109E+02]  d Ewald  = 0.1572767E+03-0.168E+03

[...]

 d Force = 0.8901576E-02[ 0.839E-02, 0.941E-02]  d Energy = 0.8991005E-02-0.894E-04
 d Force = 0.2142339E+01[ 0.215E+01, 0.213E+01]  d Ewald  = 0.4525376E+02-0.431E+02

[...]

 d Force = 0.2957010E-01[ 0.210E-01, 0.381E-01]  d Energy = 0.3034893E-01-0.779E-03
 d Force = 0.4852393E+00[ 0.986E+00,-0.155E-01]  d Ewald  =-0.2559797E+02 0.261E+02

[...]

 d Force = 0.4827289E-02[ 0.392E-02, 0.574E-02]  d Energy = 0.4222550E-02 0.605E-03
 d Force = 0.2384779E+01[ 0.246E+01, 0.231E+01]  d Ewald  =-0.1115908E+01 0.350E+01

[...]

 d Force = 0.1418548E-02[ 0.120E-02, 0.164E-02]  d Energy = 0.1038380E-02 0.380E-03
 d Force =-0.4698941E+01[-0.469E+01,-0.471E+01]  d Ewald  = 0.2345007E+02-0.281E+02

[...]

 FEWALD executed in parallel

[...]

 eigenvalue-minimisations  : 11880
 total energy-change (2. order) :-0.5286725E-03  (-0.3544855E-03)
 number of electron     158.9999780 magnetization
 augmentation part       -4.2021889 magnetization

[...]

 Broyden mixing:
  rms(total) = 0.55300E-02    rms(broyden)= 0.55245E-02
  rms(prec ) = 0.59741E-02
  weight for this iteration     100.00

 eigenvalues of (default mixing * dielectric matrix)
  average eigenvalue GAMMA=   0.5271
  0.8607  0.1934

[...]

----------------------------------------- Iteration   22(   4)  ---------------------------------------

 eigenvalue-minimisations  :  6000
 total energy-change (2. order) : 0.1722951E-04  (-0.6266908E-05)
 number of electron     158.9999780 magnetization
 augmentation part       -4.2264099 magnetization

 Free energy of the ion-electron system (eV)
  alpha Z        PSCENC =        89.47683373
  Ewald energy   TEWEN  =     44377.14271832
  -Hartree energ DENC   =    -50384.83381979
  -exchange      EXHF   =         0.00000000
  -V(xc)+E(xc)   XCENC  =      -233.54293237
  PAW double counting   =      4098.21044238    -3514.25336932
  entropy T*S    EENTRO =        -0.13294631
  eigenvalues    EBANDS =     -1385.84763764
  atomic energy  EATOM  =      6761.44252427
  Solvation  Ediel_sol  =         0.00000000
  free energy    TOTEN  =      -192.33818674 eV

  energy without entropy =     -192.20524044  energy(sigma->0) =     -192.27171359

 average (electrostatic) potential at core
  the test charge radii are     1.2064  1.2296  1.1823  0.9698
  (the norm of the test charge is              1.0000)
       1 -49.7946       2 -49.6953       3 -49.7761       4 -47.0556       5 -47.1537
       6 -47.0703       7 -49.6188       8 -49.5920       9 -49.6046      10 -94.6827
      11 -94.5597      12 -94.6797      13 -94.8467      14 -94.4859      15 -94.5650
      16 -95.1058      17 -94.9941      18 -95.2264      19 -95.2442      20 -95.1049
      21 -95.2372      22 -95.2921      23 -95.1209      24 -95.0132      25 -95.1236
      26 -94.9982      27 -94.9562

 E-fermi :  -3.2481     XC(G=0):  -2.5617     alpha+bet : -2.3665

[...]

 k-point    34 :       0.5000    0.5000    0.0000
  band No.  band energies     occupation
      1     -17.5053      2.00000
      2     -17.3492      2.00000
      3     -16.7442      2.00000
      4     -16.7168      2.00000
      5     -16.5815      2.00000
      6     -16.5541      2.00000
      7     -16.2775      2.00000
      8     -16.1979      2.00000
      9     -16.1194      2.00000
     10     -16.0822      2.00000
     11     -15.8785      2.00000
     12     -15.8365      2.00000
     13     -15.7710      2.00000
     14     -15.6973      2.00000
     15     -15.6411      2.00000
     16     -15.4311      2.00000
     17     -15.3391      2.00000
     18     -15.2104      2.00000
     19      -9.8138      2.00000
     20      -9.3526      2.00000
     21      -9.3033      2.00000
     22      -9.0064      2.00000
     23      -8.9386      2.00000
     24      -8.8308      2.00000
     25      -8.6806      2.00000
     26      -8.6631      2.00000
     27      -8.4391      2.00000
     28      -8.2916      2.00000
     29      -8.2272      2.00000
     30      -8.1316      2.00000
     31      -8.0825      2.00000
     32      -8.0106      2.00000
     33      -7.9208      2.00000
     34      -7.8465      2.00000
     35      -7.7483      2.00000
     36      -7.6823      2.00000
     37      -7.6432      2.00000
     38      -7.6002      2.00000
     39      -7.4693      2.00000
     40      -7.3377      2.00000
     41      -7.0909      2.00000
     42      -7.0748      2.00000
     43      -7.0000      2.00000
     44      -6.8546      2.00000
     45      -6.8234      2.00000
     46      -6.7145      2.00000
     47      -6.6530      2.00000
     48      -6.5902      2.00000
     49      -6.5234      2.00000
     50      -6.4619      2.00000
     51      -6.4131      2.00000
     52      -6.3456      2.00000
     53      -6.2712      2.00000
     54      -6.1834      2.00000
     55      -6.1106      2.00000
     56      -6.0949      2.00000
     57      -6.0104      2.00000
     58      -5.8477      2.00000
     59      -5.8181      2.00000
     60      -5.7927      2.00000
[...]
    106      -0.4073      0.00000
    107      -0.2949      0.00000
    108      -0.1238      0.00000
    109       0.0212      0.00000
    110       0.1956      0.00000
    111       0.2739      0.00000
    112       0.5855      0.00000
    113       0.7706      0.00000
    114       1.0417      0.00000
    115       1.1395      0.00000
    116       1.3264      0.00000
    117       1.5674      0.00000
    118       2.2519      0.00000
    119       2.2660      0.00000
    120       2.4056      0.00000

 soft charge-density along one line, spin component           1
         0         1         2         3         4         5         6         7         8         9
 total charge-density along one line

------------------------ aborting loop because EDIFF is reached ----------------------------------------

  FORCE on cell =-STRESS in cart. coord.  units (eV):
  Direction    XX          YY          ZZ          XY          YZ          ZX
  Alpha Z    89.47683    89.47683    89.47683
  Ewald   49339.55735 49292.94209-54255.37373   -39.46548    21.72467    12.14018
  Hartree 50045.16793 50015.52299-49676.13725   -25.27250    12.14439     6.93260
  E(xc)    -609.57131  -610.63354  -617.85607    -0.92249    -0.95716    -0.54121
  Local  ************************101368.99256    57.87286   -42.03329   -23.73128
  n-local  1213.53129  1215.42978  1248.74032     1.65253    -2.30445    -1.42895
  augment  -213.33714  -212.84525  -214.64879     0.46822     1.00141     0.57161
  Kinetic  2008.23038  2014.84534  2054.80001     5.65727    10.23547     5.94753
  Fock        0.00000     0.00000     0.00000     0.00000     0.00000     0.00000
  Total      -0.21137    -0.19440    -2.00611    -0.00959    -0.18897    -0.10953
  in kB      -0.14154    -0.13018    -1.34335    -0.00642    -0.12654    -0.07334

 VOLUME and BASIS-vectors are now :
  energy-cutoff  :      280.00
  volume of cell :     2392.64
      direct lattice vectors                 reciprocal lattice vectors
     8.308872143  4.822578237  0.000000000     0.060031698  0.103928701  0.000000000
    -8.288785449  4.787800297  0.000000000    -0.060467761  0.104180558  0.000000000
     0.000000000  0.000000000 30.000000000     0.000000000  0.000000000  0.033333333

  length of vectors
     9.607008751  9.572199116 30.000000000     0.120020747  0.120457207  0.033333333

 FORCES acting on ions
    electron-ion (+dipol)            ewald-force                    non-local-force                 convergence-correction
   -.128E+02 -.204E+02 -.161E+02   0.139E+02 0.216E+02 0.159E+02   -.104E+01 -.118E+01 0.232E+00   0.323E-01 -.161E-02 0.269E-01
   0.131E+02 0.230E+02 0.141E+02   -.139E+02 -.243E+02 -.138E+02   0.760E+00 0.133E+01 -.273E+00   0.194E-02 -.241E-01 -.277E-01
   -.113E+02 -.220E+02 -.164E+02   0.118E+02 0.234E+02 0.161E+02   -.498E+00 -.147E+01 0.222E+00   0.901E-02 0.259E-01 0.294E-01
   0.554E+01 -.233E+01 -.198E+01   -.532E+01 0.224E+01 0.199E+01   -.245E+00 0.932E-01 -.257E-01   -.163E-02 0.105E-01 0.154E-03
   -.497E+01 -.122E+02 -.327E+01   0.488E+01 0.120E+02 0.325E+01   0.101E+00 0.179E+00 0.133E-01   0.235E-01 0.719E-02 0.499E-02
   -.636E+01 0.450E+01 -.212E+01   0.616E+01 -.432E+01 0.214E+01   0.215E+00 -.156E+00 -.293E-01   -.242E-01 -.184E-01 -.472E-02
   -.175E+02 -.298E+02 -.197E+02   0.179E+02 0.305E+02 0.196E+02   -.384E+00 -.657E+00 0.167E+00   -.182E-01 0.288E-01 0.794E-02
   0.145E+02 0.300E+02 0.236E+02   -.149E+02 -.309E+02 -.234E+02   0.318E+00 0.835E+00 -.213E+00   0.887E-02 -.209E-01 -.628E-02
   0.185E+02 0.268E+02 0.240E+02   -.190E+02 -.275E+02 -.238E+02   0.591E+00 0.716E+00 -.225E+00   -.421E-01 -.468E-02 -.102E-01
   -.750E+01 -.555E+01 0.496E+03   0.737E+01 0.493E+01 -.501E+03   0.123E+00 0.597E+00 0.505E+01   0.130E-02 0.121E-01 -.165E-01
   0.570E+01 0.130E+02 -.488E+03   -.550E+01 -.133E+02 0.493E+03   -.241E+00 0.256E+00 -.487E+01   0.501E-01 -.116E-01 -.785E-02
   -.151E+01 -.963E+01 0.496E+03   0.107E+01 0.921E+01 -.501E+03   0.469E+00 0.398E+00 0.505E+01   -.370E-01 0.133E-01 0.219E-01
   0.639E+01 0.107E+02 -.505E+03   -.619E+01 -.104E+02 0.510E+03   -.186E+00 -.297E+00 -.524E+01   -.234E-01 -.302E-02 0.108E-01
   -.367E+01 -.656E+01 0.479E+03   0.349E+01 0.633E+01 -.484E+03   0.112E+00 0.214E+00 0.457E+01   0.599E-01 0.104E-01 0.294E-01
   0.803E+01 0.110E+02 -.487E+03   -.835E+01 -.109E+02 0.492E+03   0.355E+00 -.942E-01 -.486E+01   -.390E-01 -.636E-02 -.376E-01
   0.106E+02 0.216E+02 0.606E+03   -.109E+02 -.224E+02 -.610E+03   0.279E+00 0.823E+00 0.366E+01   0.273E-01 -.607E-01 0.192E-01
   0.854E+01 0.151E+02 -.606E+03   -.919E+01 -.163E+02 0.609E+03   0.658E+00 0.124E+01 -.318E+01   -.189E-01 -.464E-01 -.332E-02
   0.113E+02 0.185E+02 0.633E+03   -.115E+02 -.189E+02 -.637E+03   0.206E+00 0.357E+00 0.404E+01   -.150E-01 0.308E-02 -.564E-02
   0.313E+01 0.989E+01 -.614E+03   -.405E+01 -.109E+02 0.617E+03   0.916E+00 0.101E+01 -.349E+01   0.433E-02 0.162E-01 0.215E-01
   0.128E+02 0.201E+02 0.606E+03   -.133E+02 -.207E+02 -.610E+03   0.570E+00 0.640E+00 0.367E+01   -.578E-01 -.206E-01 0.325E-01
   0.673E+01 0.677E+01 -.611E+03   -.721E+01 -.809E+01 0.614E+03   0.491E+00 0.132E+01 -.350E+01   -.658E-02 -.603E-02 0.169E-01
   -.758E+01 -.128E+02 0.620E+03   0.830E+01 0.139E+02 -.624E+03   -.715E+00 -.113E+01 0.347E+01   -.195E-02 0.177E-02 -.176E-01
   -.176E+02 -.178E+02 -.610E+03   0.180E+02 0.185E+02 0.614E+03   -.493E+00 -.656E+00 -.366E+01   0.112E-02 0.139E-01 0.992E-02
   -.542E+01 -.152E+02 0.591E+03   0.622E+01 0.169E+02 -.594E+03   -.822E+00 -.168E+01 0.310E+01   0.191E-01 0.400E-01 0.222E-01
   -.736E+01 -.239E+02 -.611E+03   0.769E+01 0.247E+02 0.614E+03   -.322E+00 -.766E+00 -.364E+01   -.144E-01 0.517E-01 -.288E-01
   -.981E+01 -.114E+02 0.588E+03   0.109E+02 0.131E+02 -.591E+03   -.104E+01 -.163E+01 0.309E+01   0.234E-02 -.124E-01 -.256E-01
   -.111E+02 -.206E+02 -.587E+03   0.116E+02 0.216E+02 0.590E+03   -.591E+00 -.101E+01 -.323E+01   0.587E-01 0.532E-02 -.296E-01
   0.410E+00 0.728E+00 0.735E-01   0.178E-13 -.391E-13 -.341E-12   -.413E+00 -.736E+00 -.109E+00   -.305E-03 0.317E-02 0.324E-01

 POSITION                                       TOTAL-FORCE (eV/Angst)
     -0.14964     -0.24849      0.05787         0.002989     -0.001817      0.029005
      2.90428      1.84129     -0.05368         0.000440      0.007012     -0.027567
     -5.66338      2.93663      0.05953         0.000997      0.017171      0.027316
      2.81877      4.78858      0.00597        -0.033584      0.011301     -0.007249
     -0.01113      6.33456      0.00962         0.027679     -0.035663     -0.002297
      5.48590      3.24707      0.00626        -0.003909      0.007044     -0.006504
      5.37816      6.13030      0.06342         0.003335      0.001679      0.016159
      0.15315      3.49396     -0.07237        -0.000347     -0.006314     -0.014009
     -2.57558      5.07292     -0.07332         0.002600     -0.000441     -0.017992
     -0.91163      1.58753     28.69253        -0.000599     -0.014207      0.009926
      0.93498      1.59858      1.28085         0.009289     -0.000962     -0.007984
     -3.69578      3.19642     28.69146        -0.007796     -0.004639      0.005529
     -1.84140      3.19345      1.32865        -0.002172      0.000419     -0.007283
     -6.45059      4.77924     28.74495        -0.006886     -0.003230      0.011797
     -4.60860      4.80106      1.27884         0.002181      0.014925     -0.010116
      1.88883      3.19424     28.34192         0.006325      0.017721     -0.015659
      3.67440      3.17752      1.62355        -0.009175     -0.007727     -0.027635
     -0.87724      4.86008     28.25602         0.006344     -0.000702     -0.013190
      0.96213      4.83648      1.64997        -0.007605     -0.021439      0.007013
     -3.70455      6.42690     28.34206         0.013468      0.017716     -0.013321
     -1.81607      6.44664      1.64196        -0.001840     -0.008933     -0.016917
      4.59847      4.77868     28.33536         0.001044      0.012255      0.003349
      6.47633      4.78194      1.66869        -0.006848     -0.004648      0.018354
      1.87078      6.42629     28.42216         0.001135      0.021594     -0.006904
      3.66354      6.40747      1.67047        -0.001268     -0.005888      0.020680
     -0.89921      8.02278     28.42933         0.017453      0.006945      0.018345
      0.94495      8.01784      1.59792        -0.013250     -0.019173      0.027151
    total drift:                               -0.003100     -0.004297     -0.003137

  FREE ENERGIE OF THE ION-ELECTRON SYSTEM (eV)
  free  energy   TOTEN  =      -192.33818674 eV

  energy  without entropy=     -192.20524044  energy(sigma->0) =     -192.27171359

 d Force = 0.9080748E-03[ 0.831E-03, 0.985E-03]  d Energy = 0.8357294E-03 0.723E-04
 d Force =-0.2824735E+01[-0.282E+01,-0.283E+01]  d Ewald  =-0.5262728E+01 0.244E+01

 Quasi-Newton relaxation of ions (Broydens 2nd method)
  g(Force)  = 0.724E-03   g(Stress)= 0.148E-03

 retain information from N=  1 steps
 eigenvalues of (default step * inverse Hessian matrix)
  average eigenvalue of G=   0.0979
 eigenvalue spectrum of G is  0.0979

 reached required accuracy - stopping structural energy minimisation