 vasp.5.4.1 05Feb16 (build Jul 05 2020 17:13:04) complex

 executed on           IFC91_ompi date 2024.08.22  02:59:42

 INCAR:
 POTCAR:   PAW_PBE V 08Apr2002
 POTCAR:   PAW_PBE Mo 08Apr2002
 POTCAR:   PAW_PBE W 08Apr2002
 POTCAR:    PAW_PBE S 17Jan2003

 POTCAR:   PAW_PBE V 08Apr2002
   VRHFIN =V: p6 d4 s1

   TITEL  = PAW_PBE V 08Apr2002
   POMASS =   50.941; ZVAL   =    5.000    mass and valenz
   ENMAX  =  192.543; ENMIN  =  144.408 eV
   QCUT   =   -3.762; QGAM   =    7.524    optimization parameters

   Description
     l     E      TYP  RCUT    TYP  RCUT
     2   .000     23  2.700
     2   .000     23  2.700
     0   .000     23  2.700
     0  2.000     23  2.700
     1   .000     23  2.700
     1  2.000     23  2.700
     3   .000      7   .000

 POTCAR:   PAW_PBE Mo 08Apr2002
   VRHFIN =Mo: 4p5s4d

[...]

 POTCAR:   PAW_PBE W 08Apr2002
   VRHFIN =W : 6s5d

   TITEL  = PAW_PBE W 08Apr2002
   POMASS =  183.850; ZVAL   =    6.000    mass and valenz
   ENMAX  =  223.057; ENMIN  =  167.293 eV
   QCUT   =   -4.049; QGAM   =    8.098    optimization parameters

[...]

 POTCAR:    PAW_PBE S 17Jan2003
   VRHFIN =S : s2p4

   TITEL  = PAW_PBE S 17Jan2003
   POMASS =   32.066; ZVAL   =    6.000    mass and valenz
   ENMAX  =  280.000; ENMIN  =  194.016 eV
   QCUT   =   -4.360; QGAM   =    8.721    optimization parameters

   Description
     l     E      TYP  RCUT    TYP  RCUT
     0   .000     23  1.900
     0   .000     23  1.900
     1   .000     23  1.900
     1   .000     23  1.900
     2   .000     23  1.900

 PAW_PBE V 08Apr2002                    :
 PAW_PBE Mo 08Apr2002                   :
 PAW_PBE W 08Apr2002                    :
  PAW_PBE S 17Jan2003                   :

 POSCAR: crystal structure from VMoWS2 with Hexag
  positions in cartesian coordinates
 exchange correlation table for  LEXCH =        8
   RHO(1)=    0.500       N(1)  =     2000
   RHO(2)=  100.500       N(2)  =     4000

 ion  position               nearest neighbor table
   1  0.000  0.667  0.000-  27 2.34  12 2.34  14 2.36  15 2.36  24 2.36  25 2.36
   2  0.000  0.000  0.000-  23 2.34  14 2.34  11 2.36  10 2.36  27 2.36  26 2.36
   3  1.000  0.333  0.000-  25 2.34  10 2.34  13 2.36  12 2.36  22 2.36  23 2.36
   4  0.667  0.667  0.000-  21 2.34  24 2.34  27 2.36  26 2.36  19 2.36  18 2.36   6 3.34   5 3.34
                             9 3.34   8 3.36
   5  0.667  0.333  0.000-  19 2.34  22 2.34  25 2.36  24 2.36  17 2.36  16 2.36   4 3.34   6 3.34
                             8 3.34   7 3.36
   6  0.667  0.000  0.000-  17 2.34  26 2.34  23 2.36  22 2.36  21 2.36  20 2.36   4 3.34   5 3.34
                             7 3.34   9 3.36
   7  0.333  0.000  0.000-  11 2.34  20 2.34  17 2.36  16 2.36  15 2.36  14 2.36   9 3.34   8 3.34
                             6 3.34   5 3.36
   8  0.333  0.333  0.000-  13 2.34  16 2.34  19 2.36  18 2.36  11 2.36  10 2.36   9 3.34   7 3.34
                             5 3.34   4 3.36
   9  0.333  0.667  0.000-  15 2.34  18 2.34  20 2.36  21 2.36  13 2.36  12 2.36   7 3.34   8 3.34
                             4 3.34   6 3.36
  10  0.111  0.222  0.955-   3 2.34   2 2.36   8 2.36
  11  0.222  0.111  0.045-   7 2.34   2 2.36   8 2.36
  12  0.111  0.556  0.955-   1 2.34   3 2.36   9 2.36
  13  0.222  0.444  0.045-   8 2.34   3 2.36   9 2.36
  14  0.111  0.889  0.955-   2 2.34   1 2.36   7 2.36
  15  0.222  0.777  0.045-   9 2.34   1 2.36   7 2.36
  16  0.444  0.222  0.955-   8 2.34   7 2.36   5 2.36
  17  0.556  0.111  0.045-   6 2.34   7 2.36   5 2.36
  18  0.444  0.556  0.955-   9 2.34   8 2.36   4 2.36
  19  0.556  0.444  0.045-   5 2.34   8 2.36   4 2.36
  20  0.444  0.889  0.955-   7 2.34   9 2.36   6 2.36
  21  0.556  0.777  0.045-   4 2.34   9 2.36   6 2.36
  22  0.777  0.222  0.955-   5 2.34   6 2.36   3 2.36
  23  0.889  0.111  0.045-   2 2.34   6 2.36   3 2.36
  24  0.777  0.556  0.955-   4 2.34   5 2.36   1 2.36
  25  0.889  0.444  0.045-   3 2.34   5 2.36   1 2.36
  26  0.777  0.889  0.955-   6 2.34   4 2.36   2 2.36
  27  0.889  0.777  0.045-   1 2.34   4 2.36   2 2.36

IMPORTANT INFORMATION: All symmetrisations will be switched off!
NOSYMM: (Re-)initialisation of all symmetry stuff for point group C_1.

 KPOINTS: K-POINTS 	#supercell of CrS2 in hexagona

Automatic generation of k-mesh.
Space group operators:
 irot       det(A)        alpha          n_x          n_y          n_z        tau_x        tau_y        tau_z
    1     1.000000     0.000000     1.000000     0.000000     0.000000     0.000000     0.000000     0.000000

 Subroutine IBZKPT returns following result:

 Found     34 irreducible k-points:

 Following reciprocal coordinates:
            Coordinates               Weight
  0.000000  0.000000  0.000000      1.000000
  0.125000  0.000000  0.000000      2.000000
  0.250000  0.000000  0.000000      2.000000
  0.375000  0.000000  0.000000      2.000000
  0.500000  0.000000  0.000000      1.000000
  0.000000  0.125000  0.000000      2.000000
  0.125000  0.125000  0.000000      2.000000
  0.250000  0.125000  0.000000      2.000000
  0.375000  0.125000  0.000000      2.000000
  0.500000  0.125000  0.000000      2.000000
 -0.375000  0.125000  0.000000      2.000000
 -0.250000  0.125000  0.000000      2.000000
 -0.125000  0.125000  0.000000      2.000000
  0.000000  0.250000  0.000000      2.000000
  0.125000  0.250000  0.000000      2.000000
  0.250000  0.250000  0.000000      2.000000
  0.375000  0.250000  0.000000      2.000000
  0.500000  0.250000  0.000000      2.000000
 -0.375000  0.250000  0.000000      2.000000
 -0.250000  0.250000  0.000000      2.000000
 -0.125000  0.250000  0.000000      2.000000
 -0.000000  0.375000  0.000000      2.000000
  0.125000  0.375000  0.000000      2.000000
  0.250000  0.375000  0.000000      2.000000
  0.375000  0.375000  0.000000      2.000000
  0.500000  0.375000  0.000000      2.000000
 -0.375000  0.375000  0.000000      2.000000
 -0.250000  0.375000  0.000000      2.000000
 -0.125000  0.375000  0.000000      2.000000
  0.000000  0.500000  0.000000      1.000000
  0.125000  0.500000  0.000000      2.000000
  0.250000  0.500000  0.000000      2.000000
  0.375000  0.500000  0.000000      2.000000
  0.500000  0.500000  0.000000      1.000000

 Following cartesian coordinates:
            Coordinates               Weight
  0.000000  0.000000  0.000000      1.000000
  0.007209  0.012401  0.000000      2.000000
  0.014418  0.024802  0.000000      2.000000
  0.021626  0.037202  0.000000      2.000000
  0.028835  0.049603  0.000000      1.000000
 -0.007209  0.012401  0.000000      2.000000
  0.000000  0.024802  0.000000      2.000000
  0.007209  0.037202  0.000000      2.000000
  0.014418  0.049603  0.000000      2.000000
  0.021626  0.062004  0.000000      2.000000
 -0.028835 -0.024802  0.000000      2.000000
 -0.021626 -0.012401  0.000000      2.000000
 -0.014418  0.000000  0.000000      2.000000
 -0.014418  0.024802  0.000000      2.000000
 -0.007209  0.037202  0.000000      2.000000
  0.000000  0.049603  0.000000      2.000000
  0.007209  0.062004  0.000000      2.000000
  0.014418  0.074405  0.000000      2.000000
 -0.036044 -0.012401  0.000000      2.000000
 -0.028835  0.000000  0.000000      2.000000
 -0.021626  0.012401  0.000000      2.000000
 -0.021626  0.037202  0.000000      2.000000
 -0.014418  0.049603  0.000000      2.000000
 -0.007209  0.062004  0.000000      2.000000
  0.000000  0.074405  0.000000      2.000000
  0.007209  0.086806  0.000000      2.000000
 -0.043253  0.000000  0.000000      2.000000
 -0.036044  0.012401  0.000000      2.000000
 -0.028835  0.024802  0.000000      2.000000
 -0.028835  0.049603  0.000000      1.000000
 -0.021626  0.062004  0.000000      2.000000
 -0.014418  0.074405  0.000000      2.000000
 -0.007209  0.086806  0.000000      2.000000
  0.000000  0.099206  0.000000      1.000000

 I would recommend the setting:
   dimension x,y,z NGX =    41 NGY =   41 NGZ =  123
 SYSTEM =  unknown system
 POSCAR =  crystal structure from VMoWS2 with Hexag

 Startparameter for this run:
   NWRITE =      2    write-flag & timer
   PREC   = normal    normal or accurate (medium, high low for compatibility)
   ISTART =      0    job   : 0-new  1-cont  2-samecut
   ICHARG =      2    charge: 1-file 2-atom 10-const
   ISPIN  =      1    spin polarized calculation?
   LNONCOLLINEAR =      F non collinear calculations
   LSORBIT =      F    spin-orbit coupling
   INIWAV =      1    electr: 0-lowe 1-rand  2-diag
   LASPH  =      F    aspherical Exc in radial PAW
   METAGGA=      F    non-selfconsistent MetaGGA calc.

 Electronic Relaxation 1
   ENCUT  =  280.0 eV  20.58 Ry    4.54 a.u.  13.68 13.68 40.93*2*pi/ulx,y,z
   ENINI  =  280.0     initial cutoff
   ENAUG  =  373.4 eV  augmentation charge cutoff
   NELM   =     60;   NELMIN=  2; NELMDL= -5     # of ELM steps
   EDIFF  = 0.1E-03   stopping-criterion for ELM
   LREAL  =      F    real-space projection
   NLSPLINE    = F    spline interpolate recip. space projectors
   LCOMPAT=      F    compatible to vasp.4.4
   GGA_COMPAT  = T    GGA compatible to vasp.4.4-vasp.4.6
   LMAXPAW     = -100 max onsite density
   LMAXMIX     =    2 max onsite mixed and CHGCAR
   VOSKOWN=      0    Vosko Wilk Nusair interpolation
   ROPT   =    0.00000   0.00000   0.00000   0.00000
 Ionic relaxation
   EDIFFG = 0.1E-02   stopping-criterion for IOM
   NSW    =    100    number of steps for IOM
   NBLOCK =      1;   KBLOCK =    100    inner block; outer block
   IBRION =      1    ionic relax: 0-MD 1-quasi-New 2-CG
   NFREE  =      0    steps in history (QN), initial steepest desc. (CG)
   ISIF   =      3    stress and relaxation
   IWAVPR =     11    prediction:  0-non 1-charg 2-wave 3-comb
   ISYM   =      0    0-nonsym 1-usesym 2-fastsym
   LCORR  =      T    Harris-Foulkes like correction to forces

   POTIM  = 0.5000    time-step for ionic-motion
   TEIN   =    0.0    initial temperature
   TEBEG  =    0.0;   TEEND  =   0.0 temperature during run
   SMASS  =  -3.00    Nose mass-parameter (am)
   estimated Nose-frequenzy (Omega)   =  0.10E-29 period in steps =****** mass=  -0.230E-26a.u.
   SCALEE = 1.0000    scale energy and forces
   NPACO  =    256;   APACO  = 16.0  distance and # of slots for P.C.
   PSTRESS=    0.0 pullay stress

  Mass of Ions in am
   POMASS =  50.94 95.94183.85 32.07
  Ionic Valenz
   ZVAL   =   5.00  6.00  6.00  6.00
  Atomic Wigner-Seitz radii
  virtual crystal weights
   VCA    =   1.00  1.00  1.00  1.00
   NELECT =     159.0000    total number of electrons
   NUPDOWN=      -1.0000    fix difference up-down

 DOS related values:
   EMIN   =  10.00;   EMAX   =-10.00  energy-range for DOS
   EFERMI =   0.00
   ISMEAR =     0;   SIGMA  =   0.20  broadening in eV -4-tet -1-fermi 0-gaus

 Electronic relaxation 2 (details)
   IALGO  =     38    algorithm
   LDIAG  =      T    sub-space diagonalisation (order eigenvalues)
   LSUBROT=      F    optimize rotation matrix (better conditioning)
   TURBO    =      0    0=normal 1=particle mesh
   IRESTART =      0    0=no restart 2=restart with 2 vectors
   NREBOOT  =      0    no. of reboots
   NMIN     =      0    reboot dimension
   EREF     =   0.00    reference energy to select bands
[...]
     -3.85900      6.71900     28.66200         0.028304     -0.172276     -2.922503
     -1.92100      6.71900      1.33800        -0.189670     -0.121687      2.915767
      4.81100      5.03900     28.66200         0.524972      0.693299     -2.137119
      6.74900      5.03900      1.33800         0.320905      0.657775      1.430862
      1.92100      6.71900     28.66200         0.524770      0.694208     -2.136499
      3.85900      6.71900      1.33800         0.319590      0.658976      1.431763
     -0.96900      8.39900     28.66200         0.524421      0.694616     -2.136227
      0.96900      8.39900      1.33800         0.320475      0.659104      1.431353
    total drift:                               -0.000550     -0.001170      0.000569

  FREE ENERGIE OF THE ION-ELECTRON SYSTEM (eV)
  free  energy   TOTEN  =      -186.82736524 eV

  energy  without entropy=     -186.48216469  energy(sigma->0) =     -186.65476496

 Quasi-Newton relaxation of ions (Broydens 2nd method)
  g(Force)  = 0.475E+01   g(Stress)= 0.352E+00

 Reset! Starting new Quasi-Newton update for ions

[...]

 d Force = 0.2414857E+01[ 0.783E-01, 0.475E+01]  d Energy = 0.1843685E+01 0.571E+00
 d Force = 0.9596534E+03[ 0.942E+03, 0.977E+03]  d Ewald  = 0.2517544E+04-0.156E+04

[...]

 retain information from N=  1 steps
 eigenvalues of (default step * inverse Hessian matrix)
  average eigenvalue of G=   0.2409
 eigenvalue spectrum of G is  0.2409

[...]

 d Force = 0.3820654E-01[ 0.381E-01, 0.383E-01]  d Energy = 0.1105141E+01-0.107E+01
 d Force =-0.3166831E+01[-0.324E+01,-0.309E+01]  d Ewald  =-0.1928198E+04 0.193E+04

[...]

 d Force = 0.5063086E+00[ 0.449E+00, 0.563E+00]  d Energy = 0.1046144E+01-0.540E+00
 d Force = 0.4160503E+03[ 0.426E+03, 0.406E+03]  d Ewald  =-0.1560983E+04 0.198E+04

[...]

 d Force = 0.6907585E-01[ 0.685E-01, 0.696E-01]  d Energy = 0.6983017E-01-0.754E-03
 d Force =-0.1973279E+01[-0.194E+01,-0.201E+01]  d Ewald  = 0.4136595E+02-0.433E+02

[...]

 d Force = 0.1690684E+00[-0.292E-01, 0.367E+00]  d Energy = 0.2008715E+00-0.318E-01
 d Force =-0.4419588E+02[-0.413E+02,-0.471E+02]  d Ewald  = 0.2769123E+03-0.321E+03

[...]

 d Force =-0.4729557E-01[-0.145E+00, 0.500E-01]  d Energy =-0.5278534E-01 0.549E-02
 d Force = 0.4561630E+01[ 0.465E+01, 0.448E+01]  d Ewald  =-0.1548928E+03 0.159E+03

[...]

 d Force = 0.4796105E-02[ 0.403E-02, 0.556E-02]  d Energy = 0.4699670E-02 0.964E-04
 d Force =-0.4993144E+01[-0.496E+01,-0.503E+01]  d Ewald  = 0.5105769E+01-0.101E+02

[...]

 d Force = 0.1739907E-02[ 0.153E-02, 0.195E-02]  d Energy = 0.1805691E-02-0.658E-04
 d Force = 0.3935149E+01[ 0.395E+01, 0.392E+01]  d Ewald  = 0.2810571E+02-0.242E+02

[...]

 d Force = 0.3466209E-03[ 0.294E-03, 0.399E-03]  d Energy = 0.1947820E-03 0.152E-03
 d Force =-0.1050218E+01[-0.105E+01,-0.105E+01]  d Ewald  =-0.1848700E+02 0.174E+02

[...]

 d Force =-0.1971262E-02[-0.226E-02,-0.168E-02]  d Energy =-0.1897780E-02-0.735E-04
 d Force =-0.3288958E+01[-0.323E+01,-0.335E+01]  d Ewald  = 0.4755824E+02-0.508E+02

[...]

 eigenvalues of (default mixing * dielectric matrix)
  average eigenvalue GAMMA=   0.4252
  0.4252

[...]

 d Force = 0.1108125E-02[ 0.112E-02, 0.109E-02]  d Energy = 0.1219410E-02-0.111E-03
 d Force = 0.3125015E+00[ 0.325E+00, 0.300E+00]  d Ewald  =-0.1058102E+02 0.109E+02

[...]

 FEWALD executed in parallel

[...]

 eigenvalue-minimisations  : 10160
 total energy-change (2. order) : 0.2196944E-03  (-0.5150081E-04)
 number of electron     158.9999788 magnetization
 augmentation part       -4.2411782 magnetization

 Broyden mixing:
  rms(total) = 0.29398E-02    rms(broyden)= 0.29379E-02
  rms(prec ) = 0.31431E-02
  weight for this iteration     100.00

[...]

----------------------------------------- Iteration   24(   2)  ---------------------------------------

 eigenvalue-minimisations  :  7640
 total energy-change (2. order) :-0.6805270E-04  (-0.1638960E-04)
 number of electron     158.9999788 magnetization
 augmentation part       -4.2411782 magnetization

 Free energy of the ion-electron system (eV)
  alpha Z        PSCENC =        89.51636348
  Ewald energy   TEWEN  =     44387.29992960
  -Hartree energ DENC   =    -50395.00088103
  -exchange      EXHF   =         0.00000000
  -V(xc)+E(xc)   XCENC  =      -233.52698641
  PAW double counting   =      4098.80596537    -3514.86512071
  entropy T*S    EENTRO =        -0.14106319
  eigenvalues    EBANDS =     -1385.97158111
  atomic energy  EATOM  =      6761.44252427
  Solvation  Ediel_sol  =         0.00000000
  free energy    TOTEN  =      -192.44084972 eV

  energy without entropy =     -192.29978653  energy(sigma->0) =     -192.37031812

 average (electrostatic) potential at core
  the test charge radii are     1.2064  1.2296  1.1823  0.9698
  (the norm of the test charge is              1.0000)
       1 -49.8690       2 -49.8706       3 -49.8607       4 -47.1043       5 -47.1082
       6 -47.0992       7 -49.5268       8 -49.5287       9 -49.5241      10 -94.5709
      11 -94.6865      12 -94.5720      13 -94.6854      14 -94.5714      15 -94.6841
      16 -95.2244      17 -95.1810      18 -95.2241      19 -95.1809      20 -95.2241
      21 -95.1812      22 -95.0755      23 -94.9825      24 -95.0734      25 -94.9813
      26 -95.0776      27 -94.9818

 E-fermi :  -3.2418     XC(G=0):  -2.5574     alpha+bet : -2.3675

[...]

 k-point    34 :       0.5000    0.5000    0.0000
  band No.  band energies     occupation
      1     -17.4258      2.00000
      2     -17.4255      2.00000
      3     -16.7127      2.00000
      4     -16.7122      2.00000
      5     -16.5680      2.00000
      6     -16.5666      2.00000
      7     -16.2133      2.00000
      8     -16.1919      2.00000
      9     -16.1721      2.00000
     10     -16.1698      2.00000
     11     -15.7937      2.00000
     12     -15.7561      2.00000
     13     -15.7545      2.00000
     14     -15.6817      2.00000
     15     -15.4960      2.00000
     16     -15.4956      2.00000
     17     -15.4540      2.00000
     18     -15.2659      2.00000
     19      -9.8264      2.00000
     20      -9.3998      2.00000
     21      -9.1909      2.00000
     22      -9.1904      2.00000
     23      -8.7671      2.00000
     24      -8.7668      2.00000
     25      -8.7472      2.00000
     26      -8.5578      2.00000
     27      -8.5556      2.00000
     28      -8.3749      2.00000
     29      -8.1544      2.00000
     30      -8.0820      2.00000
     31      -8.0767      2.00000
     32      -8.0764      2.00000
     33      -7.7886      2.00000
     34      -7.7834      2.00000
     35      -7.7259      2.00000
     36      -7.7088      2.00000
     37      -7.7068      2.00000
     38      -7.5214      2.00000
     39      -7.5191      2.00000
     40      -7.4280      2.00000
     41      -7.0397      2.00000
     42      -7.0098      2.00000
     43      -7.0087      2.00000
     44      -6.8544      2.00000
     45      -6.7462      2.00000
     46      -6.7458      2.00000
     47      -6.6398      2.00000
     48      -6.5725      2.00000
     49      -6.5707      2.00000
     50      -6.5631      2.00000
     51      -6.3599      2.00000
     52      -6.3108      2.00000
     53      -6.3088      2.00000
     54      -6.2621      2.00000
     55      -6.0799      2.00000
     56      -6.0786      2.00000
     57      -5.9825      2.00000
     58      -5.8627      2.00000
     59      -5.8626      2.00000
     60      -5.7303      2.00000
[...]
    106      -0.2907      0.00000
    107      -0.2844      0.00000
    108      -0.0680      0.00000
    109      -0.0675      0.00000
    110       0.2536      0.00000
    111       0.3801      0.00000
    112       0.5248      0.00000
    113       0.5253      0.00000
    114       1.0676      0.00000
    115       1.0690      0.00000
    116       1.0744      0.00000
    117       1.8424      0.00000
    118       2.2634      0.00000
    119       2.2636      0.00000
    120       2.4153      0.00000

 soft charge-density along one line, spin component           1
         0         1         2         3         4         5         6         7         8         9
 total charge-density along one line

------------------------ aborting loop because EDIFF is reached ----------------------------------------

  FORCE on cell =-STRESS in cart. coord.  units (eV):
  Direction    XX          YY          ZZ          XY          YZ          ZX
  Alpha Z    89.51636    89.51636    89.51636
  Ewald   49350.48370 49299.55537-54262.75603   -44.03787    19.81365    11.36762
  Hartree 50056.37026 50024.55130-49685.44737   -27.53015    11.83013     6.81518
  E(xc)    -609.64534  -610.70096  -617.74160    -0.91615    -0.94907    -0.54703
  Local  ************************101386.27677    64.39639   -40.42710   -23.25068
  n-local  1213.91475  1216.12142  1248.51811     1.94843    -2.79758    -1.62662
  augment  -213.20263  -212.87539  -214.68670     0.27336     0.51598     0.30341
  Kinetic  2008.27379  2014.98850  2054.50046     5.82866    11.84259     6.83937
  Fock        0.00000     0.00000     0.00000     0.00000     0.00000     0.00000
  Total       0.07577     0.03292    -1.81999    -0.03731    -0.17140    -0.09875
  in kB       0.05076     0.02205    -1.21926    -0.02500    -0.11483    -0.06615

 VOLUME and BASIS-vectors are now :
  energy-cutoff  :      280.00
  volume of cell :     2391.58
      direct lattice vectors                 reciprocal lattice vectors
     8.308674017  4.828625383  0.000000000     0.059982992  0.103884820  0.000000000
    -8.281626951  4.781803167  0.000000000    -0.060570330  0.104224098  0.000000000
     0.000000000  0.000000000 30.000000000     0.000000000  0.000000000  0.033333333

  length of vectors
     9.609874453  9.563000914 30.000000000     0.119958389  0.120546371  0.033333333

 FORCES acting on ions
    electron-ion (+dipol)            ewald-force                    non-local-force                 convergence-correction
   -.119E+02 -.205E+02 -.123E+02   0.126E+02 0.219E+02 0.122E+02   -.774E+00 -.133E+01 0.177E+00   0.467E-01 -.523E-01 0.162E-01
   -.120E+02 -.207E+02 -.124E+02   0.128E+02 0.221E+02 0.122E+02   -.769E+00 -.133E+01 0.176E+00   -.422E-01 -.581E-02 0.135E-01
   -.118E+02 -.207E+02 -.124E+02   0.126E+02 0.220E+02 0.122E+02   -.761E+00 -.132E+01 0.173E+00   -.408E-01 -.490E-02 0.176E-01
   -.754E+01 -.117E+02 -.780E+01   0.744E+01 0.116E+02 0.789E+01   0.146E+00 0.220E+00 -.822E-01   -.373E-01 -.104E+00 -.862E-02
   -.672E+01 -.122E+02 -.779E+01   0.659E+01 0.121E+02 0.787E+01   0.119E+00 0.225E+00 -.808E-01   0.995E-02 -.396E-01 0.152E-02
   -.663E+01 -.122E+02 -.778E+01   0.659E+01 0.120E+02 0.786E+01   0.124E+00 0.227E+00 -.823E-01   -.778E-01 -.379E-01 -.382E-02
   0.177E+02 0.307E+02 0.219E+02   -.182E+02 -.314E+02 -.216E+02   0.416E+00 0.714E+00 -.329E+00   0.584E-01 0.713E-01 -.328E-02
   0.176E+02 0.306E+02 0.221E+02   -.181E+02 -.313E+02 -.217E+02   0.416E+00 0.721E+00 -.329E+00   0.122E-01 0.644E-01 -.687E-02
   0.178E+02 0.308E+02 0.217E+02   -.182E+02 -.316E+02 -.214E+02   0.407E+00 0.710E+00 -.328E+00   0.254E-01 0.307E-01 -.962E-02
   -.146E+01 -.275E+01 0.489E+03   0.109E+01 0.185E+01 -.494E+03   0.440E+00 0.762E+00 0.478E+01   -.667E-01 0.119E+00 -.668E-01
   0.949E+01 0.163E+02 -.498E+03   -.973E+01 -.168E+02 0.503E+03   0.180E+00 0.318E+00 -.512E+01   0.589E-01 0.129E+00 0.638E-01
   -.148E+01 -.252E+01 0.489E+03   0.965E+00 0.174E+01 -.494E+03   0.439E+00 0.767E+00 0.477E+01   0.651E-01 0.572E-03 -.214E-01
   0.948E+01 0.165E+02 -.498E+03   -.966E+01 -.169E+02 0.503E+03   0.194E+00 0.322E+00 -.512E+01   -.453E-02 0.260E-01 -.774E-02
   -.162E+01 -.259E+01 0.489E+03   0.106E+01 0.176E+01 -.494E+03   0.440E+00 0.758E+00 0.478E+01   0.107E+00 0.632E-01 -.108E+00
   0.958E+01 0.165E+02 -.498E+03   -.983E+01 -.169E+02 0.503E+03   0.185E+00 0.328E+00 -.512E+01   0.666E-01 0.547E-01 0.256E-01
   0.111E+02 0.191E+02 0.628E+03   -.114E+02 -.195E+02 -.632E+03   0.260E+00 0.452E+00 0.401E+01   0.189E-01 0.340E-01 0.270E-01
   0.393E+01 0.664E+01 -.622E+03   -.449E+01 -.757E+01 0.626E+03   0.538E+00 0.900E+00 -.358E+01   0.108E-01 0.160E-01 -.385E-01
   0.109E+02 0.193E+02 0.628E+03   -.112E+02 -.197E+02 -.632E+03   0.264E+00 0.454E+00 0.400E+01   0.755E-03 0.121E-01 0.313E-01
   0.374E+01 0.658E+01 -.622E+03   -.427E+01 -.750E+01 0.625E+03   0.522E+00 0.920E+00 -.359E+01   0.533E-02 -.843E-02 -.277E-01
   0.112E+02 0.191E+02 0.628E+03   -.114E+02 -.196E+02 -.632E+03   0.263E+00 0.455E+00 0.400E+01   0.200E-01 0.225E-01 0.349E-01
   0.393E+01 0.687E+01 -.623E+03   -.443E+01 -.776E+01 0.627E+03   0.512E+00 0.902E+00 -.358E+01   -.218E-01 -.173E-01 -.292E-01
   -.934E+01 -.163E+02 0.588E+03   0.104E+02 0.181E+02 -.592E+03   -.999E+00 -.176E+01 0.305E+01   -.276E-01 -.256E-01 0.345E-01
   -.118E+02 -.209E+02 -.587E+03   0.126E+02 0.219E+02 0.590E+03   -.561E+00 -.978E+00 -.320E+01   -.151E+00 0.633E-02 0.592E-01
   -.930E+01 -.160E+02 0.588E+03   0.104E+02 0.179E+02 -.591E+03   -.103E+01 -.176E+01 0.305E+01   -.190E-01 -.963E-01 -.304E-01
   -.119E+02 -.208E+02 -.587E+03   0.124E+02 0.219E+02 0.590E+03   -.566E+00 -.975E+00 -.320E+01   0.367E-01 -.670E-01 0.442E-02
   -.943E+01 -.163E+02 0.589E+03   0.106E+02 0.182E+02 -.592E+03   -.101E+01 -.174E+01 0.305E+01   -.989E-01 -.130E+00 -.898E-01
   -.123E+02 -.206E+02 -.587E+03   0.128E+02 0.217E+02 0.590E+03   -.562E+00 -.976E+00 -.321E+01   0.163E-01 -.109E+00 0.117E+00
   0.119E+01 0.207E+01 0.970E+00   -.817E-13 -.249E-13 0.227E-12   -.116E+01 -.202E+01 -.953E+00   -.285E-01 -.493E-01 -.522E-02

 POSITION                                       TOTAL-FORCE (eV/Angst)
     -5.66868      2.93144      0.04749        -0.009384     -0.003473      0.026171
     -0.14780     -0.25599      0.04804        -0.004638     -0.014930      0.027095
      5.40080      6.16579      0.04798         0.003279     -0.000678      0.024200
     -0.02631      6.34024      0.02290         0.003988      0.019086     -0.005125
      2.74134      4.74264      0.02277         0.002681      0.005551     -0.005894
      5.50186      3.14852      0.02290         0.011907      0.007602     -0.005373
      2.92734      1.88232     -0.06774        -0.002237     -0.003139     -0.023761
      0.16702      3.47672     -0.06815        -0.000574     -0.002575     -0.023469
     -2.59396      5.06950     -0.06726        -0.002640     -0.003511     -0.023074
     -0.92417      1.58664     28.71080        -0.002007     -0.012995      0.015614
      0.92019      1.59377      1.30950         0.000036      0.000724     -0.017441
     -3.68457      3.17997     28.71113        -0.007838     -0.008292      0.014143
     -1.84014      3.18683      1.30972         0.003735      0.006342     -0.012255
     -6.44533      4.77440     28.71094        -0.008677     -0.010832      0.017703
     -4.60124      4.78107      1.31008         0.001886      0.002973     -0.014244
      1.87418      3.24530     28.27428         0.006251      0.009123     -0.018260
      3.71170      3.23955      1.67766        -0.006041     -0.011322     -0.012295
     -0.88741      4.83910     28.27433         0.004846      0.009116     -0.017764
      0.95065      4.83481      1.67603        -0.005343     -0.010091     -0.013691
     -3.64736      6.43208     28.27459         0.004535      0.009132     -0.018340
     -1.81083      6.42707      1.67944        -0.006659     -0.009885     -0.010420
      4.62633      4.82380     28.42827         0.009035      0.014744      0.010150
      6.46741      4.82615      1.59615         0.000513     -0.014622      0.018564
      1.86468      6.41788     28.42955         0.010486      0.017912      0.013938
      3.70701      6.42003      1.59580        -0.009473     -0.010573      0.021044
     -0.89529      8.01256     28.42713         0.012296      0.022476      0.015193
      0.94577      8.01442      1.59569        -0.009963     -0.007864      0.017595
    total drift:                                0.000068     -0.000667      0.011976

  FREE ENERGIE OF THE ION-ELECTRON SYSTEM (eV)
  free  energy   TOTEN  =      -192.44084972 eV

  energy  without entropy=     -192.29978653  energy(sigma->0) =     -192.37031812

 d Force =-0.4560384E-04[-0.458E-04,-0.454E-04]  d Energy =-0.9955461E-04 0.540E-04
 d Force = 0.1220634E+00[ 0.122E+00, 0.122E+00]  d Ewald  =-0.6380735E+00 0.760E+00

 Quasi-Newton relaxation of ions (Broydens 2nd method)
  g(Force)  = 0.604E-03   g(Stress)= 0.172E-04

 retain information from N=  2 steps
 eigenvalues of (default step * inverse Hessian matrix)
  average eigenvalue of G=   0.4065
 eigenvalue spectrum of G is  0.0264  0.7865

 reached required accuracy - stopping structural energy minimisation