 vasp.5.4.1 05Feb16 (build Jul 05 2020 17:13:04) complex

 executed on           IFC91_ompi date 2024.08.07  14:06:49

 INCAR:
 POTCAR:   PAW_PBE V 08Apr2002
 POTCAR:   PAW_PBE Mo 08Apr2002
 POTCAR:   PAW_PBE W 08Apr2002
 POTCAR:    PAW_PBE S 17Jan2003

 POTCAR:   PAW_PBE V 08Apr2002
   VRHFIN =V: p6 d4 s1

   TITEL  = PAW_PBE V 08Apr2002
   POMASS =   50.941; ZVAL   =    5.000    mass and valenz
   ENMAX  =  192.543; ENMIN  =  144.408 eV
   QCUT   =   -3.762; QGAM   =    7.524    optimization parameters

   Description
     l     E      TYP  RCUT    TYP  RCUT
     2   .000     23  2.700
     2   .000     23  2.700
     0   .000     23  2.700
     0  2.000     23  2.700
     1   .000     23  2.700
     1  2.000     23  2.700
     3   .000      7   .000

 POTCAR:   PAW_PBE Mo 08Apr2002
   VRHFIN =Mo: 4p5s4d

[...]

 POTCAR:   PAW_PBE W 08Apr2002
   VRHFIN =W : 6s5d

   TITEL  = PAW_PBE W 08Apr2002
   POMASS =  183.850; ZVAL   =    6.000    mass and valenz
   ENMAX  =  223.057; ENMIN  =  167.293 eV
   QCUT   =   -4.049; QGAM   =    8.098    optimization parameters

[...]

 POTCAR:    PAW_PBE S 17Jan2003
   VRHFIN =S : s2p4

   TITEL  = PAW_PBE S 17Jan2003
   POMASS =   32.066; ZVAL   =    6.000    mass and valenz
   ENMAX  =  280.000; ENMIN  =  194.016 eV
   QCUT   =   -4.360; QGAM   =    8.721    optimization parameters

   Description
     l     E      TYP  RCUT    TYP  RCUT
     0   .000     23  1.900
     0   .000     23  1.900
     1   .000     23  1.900
     1   .000     23  1.900
     2   .000     23  1.900

 PAW_PBE V 08Apr2002                    :
 PAW_PBE Mo 08Apr2002                   :
 PAW_PBE W 08Apr2002                    :
  PAW_PBE S 17Jan2003                   :

 POSCAR: crystal structure from VMoWS2 with Hexag
  positions in cartesian coordinates
 exchange correlation table for  LEXCH =        8
   RHO(1)=    0.500       N(1)  =     2000
   RHO(2)=  100.500       N(2)  =     4000

 ion  position               nearest neighbor table
   1  0.667  0.000  0.000-  17 2.34  26 2.34  23 2.36  22 2.36  21 2.36  20 2.36
   2  0.667  0.333  0.000-  19 2.34  22 2.34  25 2.36  24 2.36  17 2.36  16 2.36
   3  0.667  0.667  0.000-  21 2.34  24 2.34  27 2.36  26 2.36  19 2.36  18 2.36
   4  0.333  0.000  0.000-  11 2.34  20 2.34  17 2.36  16 2.36  15 2.36  14 2.36   5 3.34   6 3.34
                             7 3.34   9 3.36
   5  0.333  0.667  0.000-  15 2.34  18 2.34  20 2.36  21 2.36  13 2.36  12 2.36   4 3.34   6 3.34
                             9 3.34   8 3.36
   6  0.333  0.333  0.000-  13 2.34  16 2.34  19 2.36  18 2.36  11 2.36  10 2.36   5 3.34   4 3.34
                             8 3.34   7 3.36
   7  0.000  0.000  0.000-  23 2.34  14 2.34  11 2.36  10 2.36  27 2.36  26 2.36   9 3.34   8 3.34
                             4 3.34   6 3.36
   8  1.000  0.333  0.000-  25 2.34  10 2.34  13 2.36  12 2.36  22 2.36  23 2.36   9 3.34   7 3.34
                             6 3.34   5 3.36
   9  0.000  0.667  0.000-  27 2.34  12 2.34  14 2.36  15 2.36  24 2.36  25 2.36   7 3.34   8 3.34
                             5 3.34   4 3.36
  10  0.111  0.222  0.955-   8 2.34   7 2.36   6 2.36
  11  0.222  0.111  0.045-   4 2.34   7 2.36   6 2.36
  12  0.111  0.556  0.955-   9 2.34   8 2.36   5 2.36
  13  0.222  0.444  0.045-   6 2.34   8 2.36   5 2.36
  14  0.111  0.889  0.955-   7 2.34   9 2.36   4 2.36
  15  0.222  0.777  0.045-   5 2.34   9 2.36   4 2.36
  16  0.444  0.222  0.955-   6 2.34   4 2.36   2 2.36
  17  0.556  0.111  0.045-   1 2.34   4 2.36   2 2.36
  18  0.444  0.556  0.955-   5 2.34   6 2.36   3 2.36
  19  0.556  0.444  0.045-   2 2.34   6 2.36   3 2.36
  20  0.444  0.889  0.955-   4 2.34   5 2.36   1 2.36
  21  0.556  0.777  0.045-   3 2.34   5 2.36   1 2.36
  22  0.777  0.222  0.955-   2 2.34   1 2.36   8 2.36
  23  0.889  0.111  0.045-   7 2.34   1 2.36   8 2.36
  24  0.777  0.556  0.955-   3 2.34   2 2.36   9 2.36
  25  0.889  0.444  0.045-   8 2.34   2 2.36   9 2.36
  26  0.777  0.889  0.955-   1 2.34   3 2.36   7 2.36
  27  0.889  0.777  0.045-   9 2.34   3 2.36   7 2.36

IMPORTANT INFORMATION: All symmetrisations will be switched off!
NOSYMM: (Re-)initialisation of all symmetry stuff for point group C_1.

 KPOINTS: K-POINTS 	#supercell of CrS2 in hexagona

Automatic generation of k-mesh.
Space group operators:
 irot       det(A)        alpha          n_x          n_y          n_z        tau_x        tau_y        tau_z
    1     1.000000     0.000000     1.000000     0.000000     0.000000     0.000000     0.000000     0.000000

 Subroutine IBZKPT returns following result:

 Found     34 irreducible k-points:

 Following reciprocal coordinates:
            Coordinates               Weight
  0.000000  0.000000  0.000000      1.000000
  0.125000  0.000000  0.000000      2.000000
  0.250000  0.000000  0.000000      2.000000
  0.375000  0.000000  0.000000      2.000000
  0.500000  0.000000  0.000000      1.000000
  0.000000  0.125000  0.000000      2.000000
  0.125000  0.125000  0.000000      2.000000
  0.250000  0.125000  0.000000      2.000000
  0.375000  0.125000  0.000000      2.000000
  0.500000  0.125000  0.000000      2.000000
 -0.375000  0.125000  0.000000      2.000000
 -0.250000  0.125000  0.000000      2.000000
 -0.125000  0.125000  0.000000      2.000000
  0.000000  0.250000  0.000000      2.000000
  0.125000  0.250000  0.000000      2.000000
  0.250000  0.250000  0.000000      2.000000
  0.375000  0.250000  0.000000      2.000000
  0.500000  0.250000  0.000000      2.000000
 -0.375000  0.250000  0.000000      2.000000
 -0.250000  0.250000  0.000000      2.000000
 -0.125000  0.250000  0.000000      2.000000
 -0.000000  0.375000  0.000000      2.000000
  0.125000  0.375000  0.000000      2.000000
  0.250000  0.375000  0.000000      2.000000
  0.375000  0.375000  0.000000      2.000000
  0.500000  0.375000  0.000000      2.000000
 -0.375000  0.375000  0.000000      2.000000
 -0.250000  0.375000  0.000000      2.000000
 -0.125000  0.375000  0.000000      2.000000
  0.000000  0.500000  0.000000      1.000000
  0.125000  0.500000  0.000000      2.000000
  0.250000  0.500000  0.000000      2.000000
  0.375000  0.500000  0.000000      2.000000
  0.500000  0.500000  0.000000      1.000000

 Following cartesian coordinates:
            Coordinates               Weight
  0.000000  0.000000  0.000000      1.000000
  0.007209  0.012401  0.000000      2.000000
  0.014418  0.024802  0.000000      2.000000
  0.021626  0.037202  0.000000      2.000000
  0.028835  0.049603  0.000000      1.000000
 -0.007209  0.012401  0.000000      2.000000
  0.000000  0.024802  0.000000      2.000000
  0.007209  0.037202  0.000000      2.000000
  0.014418  0.049603  0.000000      2.000000
  0.021626  0.062004  0.000000      2.000000
 -0.028835 -0.024802  0.000000      2.000000
 -0.021626 -0.012401  0.000000      2.000000
 -0.014418  0.000000  0.000000      2.000000
 -0.014418  0.024802  0.000000      2.000000
 -0.007209  0.037202  0.000000      2.000000
  0.000000  0.049603  0.000000      2.000000
  0.007209  0.062004  0.000000      2.000000
  0.014418  0.074405  0.000000      2.000000
 -0.036044 -0.012401  0.000000      2.000000
 -0.028835  0.000000  0.000000      2.000000
 -0.021626  0.012401  0.000000      2.000000
 -0.021626  0.037202  0.000000      2.000000
 -0.014418  0.049603  0.000000      2.000000
 -0.007209  0.062004  0.000000      2.000000
  0.000000  0.074405  0.000000      2.000000
  0.007209  0.086806  0.000000      2.000000
 -0.043253  0.000000  0.000000      2.000000
 -0.036044  0.012401  0.000000      2.000000
 -0.028835  0.024802  0.000000      2.000000
 -0.028835  0.049603  0.000000      1.000000
 -0.021626  0.062004  0.000000      2.000000
 -0.014418  0.074405  0.000000      2.000000
 -0.007209  0.086806  0.000000      2.000000
  0.000000  0.099206  0.000000      1.000000

 I would recommend the setting:
   dimension x,y,z NGX =    41 NGY =   41 NGZ =  123
 SYSTEM =  unknown system
 POSCAR =  crystal structure from VMoWS2 with Hexag

 Startparameter for this run:
   NWRITE =      2    write-flag & timer
   PREC   = normal    normal or accurate (medium, high low for compatibility)
   ISTART =      0    job   : 0-new  1-cont  2-samecut
   ICHARG =      2    charge: 1-file 2-atom 10-const
   ISPIN  =      1    spin polarized calculation?
   LNONCOLLINEAR =      F non collinear calculations
   LSORBIT =      F    spin-orbit coupling
   INIWAV =      1    electr: 0-lowe 1-rand  2-diag
   LASPH  =      F    aspherical Exc in radial PAW
   METAGGA=      F    non-selfconsistent MetaGGA calc.

 Electronic Relaxation 1
   ENCUT  =  280.0 eV  20.58 Ry    4.54 a.u.  13.68 13.68 40.93*2*pi/ulx,y,z
   ENINI  =  280.0     initial cutoff
   ENAUG  =  373.4 eV  augmentation charge cutoff
   NELM   =     60;   NELMIN=  2; NELMDL= -5     # of ELM steps
   EDIFF  = 0.1E-03   stopping-criterion for ELM
   LREAL  =      F    real-space projection
   NLSPLINE    = F    spline interpolate recip. space projectors
   LCOMPAT=      F    compatible to vasp.4.4
   GGA_COMPAT  = T    GGA compatible to vasp.4.4-vasp.4.6
   LMAXPAW     = -100 max onsite density
   LMAXMIX     =    2 max onsite mixed and CHGCAR
   VOSKOWN=      0    Vosko Wilk Nusair interpolation
   ROPT   =    0.00000   0.00000   0.00000   0.00000
 Ionic relaxation
   EDIFFG = 0.1E-02   stopping-criterion for IOM
   NSW    =    100    number of steps for IOM
   NBLOCK =      1;   KBLOCK =    100    inner block; outer block
   IBRION =      1    ionic relax: 0-MD 1-quasi-New 2-CG
   NFREE  =      0    steps in history (QN), initial steepest desc. (CG)
   ISIF   =      3    stress and relaxation
   IWAVPR =     11    prediction:  0-non 1-charg 2-wave 3-comb
   ISYM   =      0    0-nonsym 1-usesym 2-fastsym
   LCORR  =      T    Harris-Foulkes like correction to forces

   POTIM  = 0.5000    time-step for ionic-motion
   TEIN   =    0.0    initial temperature
   TEBEG  =    0.0;   TEEND  =   0.0 temperature during run
   SMASS  =  -3.00    Nose mass-parameter (am)
   estimated Nose-frequenzy (Omega)   =  0.10E-29 period in steps =****** mass=  -0.230E-26a.u.
   SCALEE = 1.0000    scale energy and forces
   NPACO  =    256;   APACO  = 16.0  distance and # of slots for P.C.
   PSTRESS=    0.0 pullay stress

  Mass of Ions in am
   POMASS =  50.94 95.94183.85 32.07
  Ionic Valenz
   ZVAL   =   5.00  6.00  6.00  6.00
  Atomic Wigner-Seitz radii
  virtual crystal weights
   VCA    =   1.00  1.00  1.00  1.00
   NELECT =     159.0000    total number of electrons
   NUPDOWN=      -1.0000    fix difference up-down

 DOS related values:
   EMIN   =  10.00;   EMAX   =-10.00  energy-range for DOS
   EFERMI =   0.00
   ISMEAR =     0;   SIGMA  =   0.20  broadening in eV -4-tet -1-fermi 0-gaus

 Electronic relaxation 2 (details)
   IALGO  =     38    algorithm
   LDIAG  =      T    sub-space diagonalisation (order eigenvalues)
   LSUBROT=      F    optimize rotation matrix (better conditioning)
   TURBO    =      0    0=normal 1=particle mesh
   IRESTART =      0    0=no restart 2=restart with 2 vectors
   NREBOOT  =      0    no. of reboots
   NMIN     =      0    reboot dimension
   EREF     =   0.00    reference energy to select bands
[...]
     -3.85900      6.71900     28.66200         0.523708      0.694815     -2.137506
     -1.92100      6.71900      1.33800         0.320538      0.658911      1.432389
      4.81100      5.03900     28.66200        -0.238206     -0.525247     -1.379964
      6.74900      5.03900      1.33800        -0.477835     -0.583243      2.135325
      1.92100      6.71900     28.66200        -0.237065     -0.524542     -1.378643
      3.85900      6.71900      1.33800        -0.479579     -0.582548      2.135087
     -0.96900      8.39900     28.66200        -0.237197     -0.524503     -1.379011
      0.96900      8.39900      1.33800        -0.478039     -0.582622      2.135343
    total drift:                               -0.000791     -0.000977      0.001103

  FREE ENERGIE OF THE ION-ELECTRON SYSTEM (eV)
  free  energy   TOTEN  =      -186.82741433 eV

  energy  without entropy=     -186.48222517  energy(sigma->0) =     -186.65481975

 Quasi-Newton relaxation of ions (Broydens 2nd method)
  g(Force)  = 0.475E+01   g(Stress)= 0.352E+00

 Reset! Starting new Quasi-Newton update for ions

[...]

 d Force = 0.2415957E+01[ 0.777E-01, 0.475E+01]  d Energy = 0.1844095E+01 0.572E+00
 d Force = 0.9599572E+03[ 0.943E+03, 0.977E+03]  d Ewald  = 0.2517283E+04-0.156E+04

[...]

 retain information from N=  1 steps
 eigenvalues of (default step * inverse Hessian matrix)
  average eigenvalue of G=   0.2411
 eigenvalue spectrum of G is  0.2411

[...]

 d Force = 0.3819082E-01[ 0.381E-01, 0.383E-01]  d Energy = 0.1105185E+01-0.107E+01
 d Force =-0.3216759E+01[-0.329E+01,-0.314E+01]  d Ewald  =-0.1928228E+04 0.193E+04

[...]

 d Force = 0.5066627E+00[ 0.450E+00, 0.563E+00]  d Energy = 0.1047213E+01-0.541E+00
 d Force = 0.4162690E+03[ 0.426E+03, 0.406E+03]  d Ewald  =-0.1566824E+04 0.198E+04

[...]

 d Force = 0.7139870E-01[ 0.708E-01, 0.720E-01]  d Energy = 0.7217221E-01-0.774E-03
 d Force =-0.2162265E+01[-0.213E+01,-0.220E+01]  d Ewald  = 0.4390674E+02-0.461E+02

[...]

 d Force =-0.3355135E-01[-0.911E-01, 0.240E-01]  d Energy =-0.3589298E-01 0.234E-02
 d Force =-0.3715368E+01[-0.375E+01,-0.368E+01]  d Ewald  =-0.1470083E+03 0.143E+03

[...]

 d Force = 0.8493850E-02[ 0.702E-02, 0.997E-02]  d Energy = 0.8156794E-02 0.337E-03
 d Force = 0.3397590E-01[ 0.201E+00,-0.133E+00]  d Ewald  =-0.2377469E+02 0.238E+02

[...]

 d Force = 0.8218063E-04[-0.860E-04, 0.250E-03]  d Energy = 0.1829654E-03-0.101E-03
 d Force =-0.1349450E+01[-0.135E+01,-0.135E+01]  d Ewald  =-0.1641490E+02 0.151E+02

[...]

 d Force = 0.1135332E-02[ 0.111E-02, 0.116E-02]  d Energy = 0.1115106E-02 0.202E-04
 d Force = 0.1628265E+01[ 0.163E+01, 0.162E+01]  d Ewald  =-0.1812805E+01 0.344E+01

[...]

 d Force = 0.1365477E-04[ 0.391E-05, 0.234E-04]  d Energy =-0.8143612E-05 0.218E-04
 d Force =-0.4067583E+00[-0.407E+00,-0.407E+00]  d Ewald  = 0.7214376E+01-0.762E+01

[...]

 d Force = 0.7935754E-04[ 0.585E-04, 0.100E-03]  d Energy = 0.1152512E-03-0.359E-04
 d Force =-0.5606643E+00[-0.561E+00,-0.561E+00]  d Ewald  = 0.8670865E+01-0.923E+01

[...]

 d Force = 0.9233533E-03[ 0.893E-03, 0.953E-03]  d Energy = 0.8591276E-03 0.642E-04
 d Force = 0.5101380E+00[ 0.515E+00, 0.506E+00]  d Ewald  = 0.2158057E+02-0.211E+02

[...]

 FEWALD executed in parallel

[...]

 eigenvalue-minimisations  : 11840
 total energy-change (2. order) :-0.9214784E-04  (-0.1144973E-03)
 number of electron     158.9999780 magnetization
 augmentation part       -4.2461213 magnetization

 Broyden mixing:
  rms(total) = 0.54300E-02    rms(broyden)= 0.54291E-02
  rms(prec ) = 0.59217E-02
  weight for this iteration     100.00

 eigenvalues of (default mixing * dielectric matrix)
  average eigenvalue GAMMA=   0.4312
  0.4312

[...]

----------------------------------------- Iteration   24(   3)  ---------------------------------------

 eigenvalue-minimisations  :  8080
 total energy-change (2. order) : 0.8539608E-05  (-0.1378391E-04)
 number of electron     158.9999780 magnetization
 augmentation part       -4.2461213 magnetization

 Free energy of the ion-electron system (eV)
  alpha Z        PSCENC =        89.45448384
  Ewald energy   TEWEN  =     44359.37154443
  -Hartree energ DENC   =    -50366.83165367
  -exchange      EXHF   =         0.00000000
  -V(xc)+E(xc)   XCENC  =      -233.55063629
  PAW double counting   =      4098.23585297    -3514.29012921
  entropy T*S    EENTRO =        -0.14280130
  eigenvalues    EBANDS =     -1386.12761927
  atomic energy  EATOM  =      6761.44252427
  Solvation  Ediel_sol  =         0.00000000
  free energy    TOTEN  =      -192.43843424 eV

  energy without entropy =     -192.29563293  energy(sigma->0) =     -192.36703359

 average (electrostatic) potential at core
  the test charge radii are     1.2064  1.2296  1.1823  0.9698
  (the norm of the test charge is              1.0000)
       1 -49.8706       2 -49.8730       3 -49.8666       4 -47.1062       5 -47.1118
       6 -47.1083       7 -49.5282       8 -49.5314       9 -49.5299      10 -95.2252
      11 -95.1816      12 -95.2255      13 -95.1811      14 -95.2251      15 -95.1815
      16 -95.0786      17 -94.9846      18 -95.0767      19 -94.9850      20 -95.0762
      21 -94.9841      22 -94.5717      23 -94.6855      24 -94.5717      25 -94.6863
      26 -94.5721      27 -94.6839

 E-fermi :  -3.2445     XC(G=0):  -2.5575     alpha+bet : -2.3659

[...]

 k-point    34 :       0.5000    0.5000    0.0000
  band No.  band energies     occupation
      1     -17.4254      2.00000
      2     -17.4253      2.00000
      3     -16.7140      2.00000
      4     -16.7133      2.00000
      5     -16.5659      2.00000
      6     -16.5647      2.00000
      7     -16.2155      2.00000
      8     -16.1921      2.00000
      9     -16.1726      2.00000
     10     -16.1712      2.00000
     11     -15.7948      2.00000
     12     -15.7553      2.00000
     13     -15.7541      2.00000
     14     -15.6863      2.00000
     15     -15.4985      2.00000
     16     -15.4979      2.00000
     17     -15.4551      2.00000
     18     -15.2664      2.00000
     19      -9.8249      2.00000
     20      -9.3985      2.00000
     21      -9.1901      2.00000
     22      -9.1897      2.00000
     23      -8.7669      2.00000
     24      -8.7667      2.00000
     25      -8.7475      2.00000
     26      -8.5572      2.00000
     27      -8.5560      2.00000
     28      -8.3725      2.00000
     29      -8.1555      2.00000
     30      -8.0800      2.00000
     31      -8.0786      2.00000
     32      -8.0782      2.00000
     33      -7.7888      2.00000
     34      -7.7850      2.00000
     35      -7.7254      2.00000
     36      -7.7102      2.00000
     37      -7.7088      2.00000
     38      -7.5224      2.00000
     39      -7.5207      2.00000
     40      -7.4295      2.00000
     41      -7.0398      2.00000
     42      -7.0113      2.00000
     43      -7.0104      2.00000
     44      -6.8542      2.00000
     45      -6.7474      2.00000
     46      -6.7465      2.00000
     47      -6.6413      2.00000
     48      -6.5717      2.00000
     49      -6.5707      2.00000
     50      -6.5643      2.00000
     51      -6.3625      2.00000
     52      -6.3128      2.00000
     53      -6.3118      2.00000
     54      -6.2630      2.00000
     55      -6.0828      2.00000
     56      -6.0818      2.00000
     57      -5.9829      2.00000
     58      -5.8646      2.00000
     59      -5.8643      2.00000
     60      -5.7313      2.00000
[...]
    106      -0.2944      0.00000
    107      -0.2906      0.00000
    108      -0.0702      0.00000
    109      -0.0690      0.00000
    110       0.2511      0.00000
    111       0.3772      0.00000
    112       0.5246      0.00000
    113       0.5253      0.00000
    114       1.0617      0.00000
    115       1.0620      0.00000
    116       1.0700      0.00000
    117       1.8411      0.00000
    118       2.2617      0.00000
    119       2.2617      0.00000
    120       2.4129      0.00000

 soft charge-density along one line, spin component           1
         0         1         2         3         4         5         6         7         8         9
 total charge-density along one line

------------------------ aborting loop because EDIFF is reached ----------------------------------------

  FORCE on cell =-STRESS in cart. coord.  units (eV):
  Direction    XX          YY          ZZ          XY          YZ          ZX
  Alpha Z    89.45448    89.45448    89.45448
  Ewald   49322.26272 49271.29257-54234.20074   -44.07394    19.47164    11.16795
  Hartree 50027.88257 49996.24129-49657.02697   -27.37639    11.58070     6.67058
  E(xc)    -609.61920  -610.66968  -617.69802    -0.91179    -0.95036    -0.54770
  Local  ************************101329.40229    64.25584   -39.93191   -22.96199
  n-local  1213.89589  1216.04118  1248.38191     1.89551    -2.77861    -1.61581
  augment  -213.25053  -212.91940  -214.74213     0.27689     0.51585     0.30355
  Kinetic  2008.15788  2014.97330  2054.54881     5.91655    11.86047     6.84938
  Fock        0.00000     0.00000     0.00000     0.00000     0.00000     0.00000
  Total      -0.15527    -0.17580    -1.88037    -0.01734    -0.23220    -0.13403
  in kB      -0.10395    -0.11769    -1.25884    -0.01161    -0.15545    -0.08973

 VOLUME and BASIS-vectors are now :
  energy-cutoff  :      280.00
  volume of cell :     2393.23
      direct lattice vectors                 reciprocal lattice vectors
     8.311545727  4.830214452  0.000000000     0.059962775  0.103849769  0.000000000
    -8.284559565  4.783498184  0.000000000    -0.060548379  0.104188050  0.000000000
     0.000000000  0.000000000 30.000000000     0.000000000  0.000000000  0.033333333

  length of vectors
     9.613155779  9.566388141 30.000000000     0.119917926  0.120504174  0.033333333

 FORCES acting on ions
    electron-ion (+dipol)            ewald-force                    non-local-force                 convergence-correction
   -.119E+02 -.205E+02 -.106E+02   0.126E+02 0.219E+02 0.104E+02   -.772E+00 -.133E+01 0.180E+00   0.440E-01 -.288E-01 0.376E-01
   -.119E+02 -.207E+02 -.106E+02   0.127E+02 0.220E+02 0.104E+02   -.764E+00 -.133E+01 0.182E+00   -.274E-01 0.776E-02 0.328E-01
   -.118E+02 -.206E+02 -.105E+02   0.126E+02 0.219E+02 0.103E+02   -.759E+00 -.132E+01 0.185E+00   -.265E-01 0.343E-02 0.383E-01
   -.727E+01 -.120E+02 -.816E+01   0.716E+01 0.119E+02 0.824E+01   0.137E+00 0.224E+00 -.933E-01   -.194E-01 -.692E-01 -.389E-02
   -.717E+01 -.121E+02 -.820E+01   0.703E+01 0.119E+02 0.828E+01   0.130E+00 0.220E+00 -.953E-01   0.115E-01 -.132E-01 0.493E-02
   -.663E+01 -.124E+02 -.821E+01   0.656E+01 0.121E+02 0.829E+01   0.121E+00 0.228E+00 -.959E-01   -.479E-01 -.143E-01 0.854E-03
   0.178E+02 0.308E+02 0.201E+02   -.182E+02 -.315E+02 -.197E+02   0.409E+00 0.705E+00 -.344E+00   0.119E-01 0.171E-02 -.127E-01
   0.176E+02 0.306E+02 0.203E+02   -.181E+02 -.313E+02 -.200E+02   0.414E+00 0.715E+00 -.344E+00   0.308E-01 0.346E-01 -.826E-02
   0.177E+02 0.306E+02 0.202E+02   -.181E+02 -.314E+02 -.199E+02   0.408E+00 0.712E+00 -.344E+00   -.314E-02 0.324E-01 -.103E-01
   0.112E+02 0.191E+02 0.627E+03   -.114E+02 -.195E+02 -.631E+03   0.265E+00 0.459E+00 0.400E+01   0.740E-02 -.673E-03 0.229E-01
   0.383E+01 0.657E+01 -.623E+03   -.434E+01 -.746E+01 0.627E+03   0.515E+00 0.887E+00 -.359E+01   -.117E-01 -.155E-01 0.125E-02
   0.110E+02 0.192E+02 0.627E+03   -.113E+02 -.196E+02 -.631E+03   0.264E+00 0.456E+00 0.400E+01   0.235E-02 0.124E-01 0.197E-01
   0.372E+01 0.637E+01 -.622E+03   -.426E+01 -.730E+01 0.626E+03   0.526E+00 0.894E+00 -.360E+01   0.614E-02 0.141E-01 -.255E-02
   0.110E+02 0.193E+02 0.627E+03   -.113E+02 -.197E+02 -.631E+03   0.264E+00 0.456E+00 0.400E+01   -.621E-02 -.565E-02 0.263E-01
   0.368E+01 0.649E+01 -.623E+03   -.420E+01 -.740E+01 0.626E+03   0.510E+00 0.901E+00 -.360E+01   0.276E-02 -.352E-02 -.166E-02
   -.938E+01 -.163E+02 0.589E+03   0.104E+02 0.181E+02 -.592E+03   -.995E+00 -.173E+01 0.307E+01   -.595E-01 -.818E-01 -.664E-01
   -.122E+02 -.208E+02 -.586E+03   0.127E+02 0.218E+02 0.589E+03   -.563E+00 -.978E+00 -.319E+01   0.268E-01 -.610E-01 0.694E-01
   -.927E+01 -.161E+02 0.588E+03   0.103E+02 0.179E+02 -.591E+03   -.101E+01 -.176E+01 0.305E+01   -.109E-01 0.292E-02 0.245E-01
   -.119E+02 -.210E+02 -.585E+03   0.125E+02 0.219E+02 0.589E+03   -.560E+00 -.982E+00 -.317E+01   -.978E-01 0.325E-01 0.314E-01
   -.938E+01 -.162E+02 0.588E+03   0.104E+02 0.180E+02 -.591E+03   -.101E+01 -.173E+01 0.308E+01   -.586E-02 -.534E-01 -.163E-01
   -.121E+02 -.208E+02 -.585E+03   0.126E+02 0.218E+02 0.589E+03   -.571E+00 -.976E+00 -.318E+01   0.401E-01 -.250E-01 -.133E-01
   -.153E+01 -.252E+01 0.489E+03   0.101E+01 0.172E+01 -.494E+03   0.434E+00 0.751E+00 0.478E+01   0.742E-01 0.381E-01 -.673E-01
   0.966E+01 0.167E+02 -.498E+03   -.988E+01 -.170E+02 0.503E+03   0.185E+00 0.330E+00 -.511E+01   0.378E-01 0.156E-01 0.230E-01
   -.136E+01 -.259E+01 0.489E+03   0.974E+00 0.174E+01 -.494E+03   0.435E+00 0.756E+00 0.477E+01   -.540E-01 0.839E-01 -.356E-01
   0.959E+01 0.166E+02 -.498E+03   -.980E+01 -.170E+02 0.503E+03   0.187E+00 0.322E+00 -.512E+01   0.281E-01 0.756E-01 0.504E-01
   -.148E+01 -.241E+01 0.489E+03   0.986E+00 0.165E+01 -.494E+03   0.437E+00 0.757E+00 0.477E+01   0.456E-01 -.769E-02 -.205E-02
   0.967E+01 0.168E+02 -.498E+03   -.984E+01 -.171E+02 0.503E+03   0.194E+00 0.330E+00 -.511E+01   -.146E-01 -.235E-02 -.428E-02
   0.118E+01 0.205E+01 0.814E+00   0.604E-13 -.178E-13 -.341E-12   -.117E+01 -.203E+01 -.930E+00   -.153E-01 -.271E-01 0.139E+00

 POSITION                                       TOTAL-FORCE (eV/Angst)
      5.39338      2.96424      0.04237        -0.007314     -0.003363      0.028985
      2.63229      4.55858      0.04256        -0.003389     -0.010976      0.031455
     -0.12949      6.15267      0.04202         0.005787      0.005211      0.035478
      2.72865      1.54133      0.02411         0.003714      0.011370     -0.012603
     -2.79351      4.73006      0.02416        -0.003668      0.002739     -0.015314
     -0.02791      3.13306      0.02425         0.008466      0.000803     -0.014586
      0.15754      0.27248     -0.06290        -0.000817     -0.003102     -0.036723
      5.70798      6.69780     -0.06349        -0.000105      0.000814     -0.037329
     -5.36497      3.46185     -0.06329        -0.001907     -0.002283     -0.036374
     -0.89720      1.63347     28.27852         0.006612      0.012157     -0.015892
      0.94302      1.63245      1.68133        -0.007761     -0.011482     -0.008880
     -3.65884      3.22868     28.27836         0.007497      0.011977     -0.015898
     -1.81784      3.22807      1.67910        -0.007452     -0.013004     -0.011300
     -6.42084      4.82262     28.27874         0.005531      0.010194     -0.017865
     -4.58031      4.82255      1.67994        -0.005952     -0.012130     -0.010855
      1.85507      3.21240     28.42619         0.013857      0.023159      0.016730
      3.70020      3.22019      1.59075        -0.010335     -0.010810      0.024546
     -0.90642      4.80655     28.42812         0.007734      0.013934      0.005786
      0.93901      4.81462      1.59011        -0.002439     -0.016789      0.032596
     -3.66861      6.40132     28.42697         0.012564      0.022080      0.018713
     -1.82267      6.40930      1.59001        -0.010729     -0.013502      0.034064
      4.61768      4.80915     28.70903        -0.008797     -0.012002      0.017594
      6.46065      4.81314      1.31144         0.003943      0.006855     -0.013186
      1.85630      6.40344     28.70925        -0.004478     -0.012684      0.015065
      3.69968      6.40775      1.31135         0.002775      0.004496     -0.015589
     -0.90558      7.99793     28.70937        -0.007030     -0.010698      0.014271
      0.93808      8.00189      1.31163         0.003692      0.007036     -0.012892
    total drift:                               -0.000005     -0.001370      0.023434

  FREE ENERGIE OF THE ION-ELECTRON SYSTEM (eV)
  free  energy   TOTEN  =      -192.43843424 eV

  energy  without entropy=     -192.29563293  energy(sigma->0) =     -192.36703359

 d Force = 0.5541296E-03[ 0.445E-03, 0.663E-03]  d Energy = 0.4379652E-03 0.116E-03
 d Force =-0.1989058E+01[-0.199E+01,-0.199E+01]  d Ewald  =-0.9931224E+01 0.794E+01

 Quasi-Newton relaxation of ions (Broydens 2nd method)
  g(Force)  = 0.893E-03   g(Stress)= 0.994E-04

 retain information from N=  1 steps
 eigenvalues of (default step * inverse Hessian matrix)
  average eigenvalue of G=   0.9071
 eigenvalue spectrum of G is  0.9071

 reached required accuracy - stopping structural energy minimisation