 vasp.5.4.1 05Feb16 (build Jul 05 2020 17:13:04) complex

 executed on           IFC91_ompi date 2024.07.20  01:08:16

 INCAR:
 POTCAR:   PAW_PBE V 08Apr2002
 POTCAR:   PAW_PBE Mo 08Apr2002
 POTCAR:   PAW_PBE W 08Apr2002
 POTCAR:    PAW_PBE S 17Jan2003

 POTCAR:   PAW_PBE V 08Apr2002
   VRHFIN =V: p6 d4 s1

   TITEL  = PAW_PBE V 08Apr2002
   POMASS =   50.941; ZVAL   =    5.000    mass and valenz
   ENMAX  =  192.543; ENMIN  =  144.408 eV
   QCUT   =   -3.762; QGAM   =    7.524    optimization parameters

   Description
     l     E      TYP  RCUT    TYP  RCUT
     2   .000     23  2.700
     2   .000     23  2.700
     0   .000     23  2.700
     0  2.000     23  2.700
     1   .000     23  2.700
     1  2.000     23  2.700
     3   .000      7   .000

 POTCAR:   PAW_PBE Mo 08Apr2002
   VRHFIN =Mo: 4p5s4d

[...]

 POTCAR:   PAW_PBE W 08Apr2002
   VRHFIN =W : 6s5d

   TITEL  = PAW_PBE W 08Apr2002
   POMASS =  183.850; ZVAL   =    6.000    mass and valenz
   ENMAX  =  223.057; ENMIN  =  167.293 eV
   QCUT   =   -4.049; QGAM   =    8.098    optimization parameters

[...]

 POTCAR:    PAW_PBE S 17Jan2003
   VRHFIN =S : s2p4

   TITEL  = PAW_PBE S 17Jan2003
   POMASS =   32.066; ZVAL   =    6.000    mass and valenz
   ENMAX  =  280.000; ENMIN  =  194.016 eV
   QCUT   =   -4.360; QGAM   =    8.721    optimization parameters

   Description
     l     E      TYP  RCUT    TYP  RCUT
     0   .000     23  1.900
     0   .000     23  1.900
     1   .000     23  1.900
     1   .000     23  1.900
     2   .000     23  1.900

 PAW_PBE V 08Apr2002                    :
 PAW_PBE Mo 08Apr2002                   :
 PAW_PBE W 08Apr2002                    :
  PAW_PBE S 17Jan2003                   :

 POSCAR: crystal structure from VMoWS2 with Hexag
  positions in cartesian coordinates
 exchange correlation table for  LEXCH =        8
   RHO(1)=    0.500       N(1)  =     2000
   RHO(2)=  100.500       N(2)  =     4000

 ion  position               nearest neighbor table
   1  0.000  0.000  0.000-  23 2.34  14 2.34  11 2.36  10 2.36  27 2.36  26 2.36
   2  0.000  0.667  0.000-  27 2.34  12 2.34  14 2.36  15 2.36  24 2.36  25 2.36
   3  0.333  0.000  0.000-  11 2.34  20 2.34  17 2.36  16 2.36  15 2.36  14 2.36
   4  1.000  0.333  0.000-  25 2.34  10 2.34  13 2.36  12 2.36  22 2.36  23 2.36   5 3.34   7 3.34
                             6 3.36   8 3.36
   5  0.667  0.333  0.000-  19 2.34  22 2.34  25 2.36  24 2.36  17 2.36  16 2.36   4 3.34   9 3.34
                             6 3.34   7 3.34
   6  0.667  0.000  0.000-  17 2.34  26 2.34  23 2.36  22 2.36  21 2.36  20 2.36   9 3.34   5 3.34
                             4 3.36   8 3.36
   7  0.333  0.333  0.000-  13 2.34  16 2.34  19 2.36  18 2.36  11 2.36  10 2.36   8 3.34   4 3.34
                             5 3.34   9 3.36
   8  0.333  0.667  0.000-  15 2.34  18 2.34  20 2.36  21 2.36  13 2.36  12 2.36   7 3.34   9 3.34
                             6 3.36   4 3.36
   9  0.667  0.667  0.000-  21 2.34  24 2.34  27 2.36  26 2.36  19 2.36  18 2.36   6 3.34   5 3.34
                             8 3.34   7 3.36
  10  0.111  0.222  0.955-   4 2.34   1 2.36   7 2.36
  11  0.222  0.111  0.045-   3 2.34   1 2.36   7 2.36
  12  0.111  0.556  0.955-   2 2.34   4 2.36   8 2.36
  13  0.222  0.444  0.045-   7 2.34   4 2.36   8 2.36
  14  0.111  0.889  0.955-   1 2.34   2 2.36   3 2.36
  15  0.222  0.777  0.045-   8 2.34   2 2.36   3 2.36
  16  0.444  0.222  0.955-   7 2.34   3 2.36   5 2.36
  17  0.556  0.111  0.045-   6 2.34   3 2.36   5 2.36
  18  0.444  0.556  0.955-   8 2.34   7 2.36   9 2.36
  19  0.556  0.444  0.045-   5 2.34   7 2.36   9 2.36
  20  0.444  0.889  0.955-   3 2.34   8 2.36   6 2.36
  21  0.556  0.777  0.045-   9 2.34   8 2.36   6 2.36
  22  0.777  0.222  0.955-   5 2.34   6 2.36   4 2.36
  23  0.889  0.111  0.045-   1 2.34   6 2.36   4 2.36
  24  0.777  0.556  0.955-   9 2.34   5 2.36   2 2.36
  25  0.889  0.444  0.045-   4 2.34   5 2.36   2 2.36
  26  0.777  0.889  0.955-   6 2.34   9 2.36   1 2.36
  27  0.889  0.777  0.045-   2 2.34   9 2.36   1 2.36

IMPORTANT INFORMATION: All symmetrisations will be switched off!
NOSYMM: (Re-)initialisation of all symmetry stuff for point group C_1.

 KPOINTS: K-POINTS 	#supercell of CrS2 in hexagona

Automatic generation of k-mesh.
Space group operators:
 irot       det(A)        alpha          n_x          n_y          n_z        tau_x        tau_y        tau_z
    1     1.000000     0.000000     1.000000     0.000000     0.000000     0.000000     0.000000     0.000000

 Subroutine IBZKPT returns following result:

 Found     34 irreducible k-points:

 Following reciprocal coordinates:
            Coordinates               Weight
  0.000000  0.000000  0.000000      1.000000
  0.125000  0.000000  0.000000      2.000000
  0.250000  0.000000  0.000000      2.000000
  0.375000  0.000000  0.000000      2.000000
  0.500000  0.000000  0.000000      1.000000
  0.000000  0.125000  0.000000      2.000000
  0.125000  0.125000  0.000000      2.000000
  0.250000  0.125000  0.000000      2.000000
  0.375000  0.125000  0.000000      2.000000
  0.500000  0.125000  0.000000      2.000000
 -0.375000  0.125000  0.000000      2.000000
 -0.250000  0.125000  0.000000      2.000000
 -0.125000  0.125000  0.000000      2.000000
  0.000000  0.250000  0.000000      2.000000
  0.125000  0.250000  0.000000      2.000000
  0.250000  0.250000  0.000000      2.000000
  0.375000  0.250000  0.000000      2.000000
  0.500000  0.250000  0.000000      2.000000
 -0.375000  0.250000  0.000000      2.000000
 -0.250000  0.250000  0.000000      2.000000
 -0.125000  0.250000  0.000000      2.000000
 -0.000000  0.375000  0.000000      2.000000
  0.125000  0.375000  0.000000      2.000000
  0.250000  0.375000  0.000000      2.000000
  0.375000  0.375000  0.000000      2.000000
  0.500000  0.375000  0.000000      2.000000
 -0.375000  0.375000  0.000000      2.000000
 -0.250000  0.375000  0.000000      2.000000
 -0.125000  0.375000  0.000000      2.000000
  0.000000  0.500000  0.000000      1.000000
  0.125000  0.500000  0.000000      2.000000
  0.250000  0.500000  0.000000      2.000000
  0.375000  0.500000  0.000000      2.000000
  0.500000  0.500000  0.000000      1.000000

 Following cartesian coordinates:
            Coordinates               Weight
  0.000000  0.000000  0.000000      1.000000
  0.007209  0.012401  0.000000      2.000000
  0.014418  0.024802  0.000000      2.000000
  0.021626  0.037202  0.000000      2.000000
  0.028835  0.049603  0.000000      1.000000
 -0.007209  0.012401  0.000000      2.000000
  0.000000  0.024802  0.000000      2.000000
  0.007209  0.037202  0.000000      2.000000
  0.014418  0.049603  0.000000      2.000000
  0.021626  0.062004  0.000000      2.000000
 -0.028835 -0.024802  0.000000      2.000000
 -0.021626 -0.012401  0.000000      2.000000
 -0.014418  0.000000  0.000000      2.000000
 -0.014418  0.024802  0.000000      2.000000
 -0.007209  0.037202  0.000000      2.000000
  0.000000  0.049603  0.000000      2.000000
  0.007209  0.062004  0.000000      2.000000
  0.014418  0.074405  0.000000      2.000000
 -0.036044 -0.012401  0.000000      2.000000
 -0.028835  0.000000  0.000000      2.000000
 -0.021626  0.012401  0.000000      2.000000
 -0.021626  0.037202  0.000000      2.000000
 -0.014418  0.049603  0.000000      2.000000
 -0.007209  0.062004  0.000000      2.000000
  0.000000  0.074405  0.000000      2.000000
  0.007209  0.086806  0.000000      2.000000
 -0.043253  0.000000  0.000000      2.000000
 -0.036044  0.012401  0.000000      2.000000
 -0.028835  0.024802  0.000000      2.000000
 -0.028835  0.049603  0.000000      1.000000
 -0.021626  0.062004  0.000000      2.000000
 -0.014418  0.074405  0.000000      2.000000
 -0.007209  0.086806  0.000000      2.000000
  0.000000  0.099206  0.000000      1.000000

 I would recommend the setting:
   dimension x,y,z NGX =    41 NGY =   41 NGZ =  123
 SYSTEM =  unknown system
 POSCAR =  crystal structure from VMoWS2 with Hexag

 Startparameter for this run:
   NWRITE =      2    write-flag & timer
   PREC   = normal    normal or accurate (medium, high low for compatibility)
   ISTART =      0    job   : 0-new  1-cont  2-samecut
   ICHARG =      2    charge: 1-file 2-atom 10-const
   ISPIN  =      1    spin polarized calculation?
   LNONCOLLINEAR =      F non collinear calculations
   LSORBIT =      F    spin-orbit coupling
   INIWAV =      1    electr: 0-lowe 1-rand  2-diag
   LASPH  =      F    aspherical Exc in radial PAW
   METAGGA=      F    non-selfconsistent MetaGGA calc.

 Electronic Relaxation 1
   ENCUT  =  280.0 eV  20.58 Ry    4.54 a.u.  13.68 13.68 40.93*2*pi/ulx,y,z
   ENINI  =  280.0     initial cutoff
   ENAUG  =  373.4 eV  augmentation charge cutoff
   NELM   =     60;   NELMIN=  2; NELMDL= -5     # of ELM steps
   EDIFF  = 0.1E-03   stopping-criterion for ELM
   LREAL  =      F    real-space projection
   NLSPLINE    = F    spline interpolate recip. space projectors
   LCOMPAT=      F    compatible to vasp.4.4
   GGA_COMPAT  = T    GGA compatible to vasp.4.4-vasp.4.6
   LMAXPAW     = -100 max onsite density
   LMAXMIX     =    2 max onsite mixed and CHGCAR
   VOSKOWN=      0    Vosko Wilk Nusair interpolation
   ROPT   =    0.00000   0.00000   0.00000   0.00000
 Ionic relaxation
   EDIFFG = 0.1E-02   stopping-criterion for IOM
   NSW    =    100    number of steps for IOM
   NBLOCK =      1;   KBLOCK =    100    inner block; outer block
   IBRION =      1    ionic relax: 0-MD 1-quasi-New 2-CG
   NFREE  =      0    steps in history (QN), initial steepest desc. (CG)
   ISIF   =      3    stress and relaxation
   IWAVPR =     11    prediction:  0-non 1-charg 2-wave 3-comb
   ISYM   =      0    0-nonsym 1-usesym 2-fastsym
   LCORR  =      T    Harris-Foulkes like correction to forces

   POTIM  = 0.5000    time-step for ionic-motion
   TEIN   =    0.0    initial temperature
   TEBEG  =    0.0;   TEEND  =   0.0 temperature during run
   SMASS  =  -3.00    Nose mass-parameter (am)
   estimated Nose-frequenzy (Omega)   =  0.10E-29 period in steps =****** mass=  -0.230E-26a.u.
   SCALEE = 1.0000    scale energy and forces
   NPACO  =    256;   APACO  = 16.0  distance and # of slots for P.C.
   PSTRESS=    0.0 pullay stress

  Mass of Ions in am
   POMASS =  50.94 95.94183.85 32.07
  Ionic Valenz
   ZVAL   =   5.00  6.00  6.00  6.00
  Atomic Wigner-Seitz radii
  virtual crystal weights
   VCA    =   1.00  1.00  1.00  1.00
   NELECT =     159.0000    total number of electrons
   NUPDOWN=      -1.0000    fix difference up-down

 DOS related values:
   EMIN   =  10.00;   EMAX   =-10.00  energy-range for DOS
   EFERMI =   0.00
   ISMEAR =     0;   SIGMA  =   0.20  broadening in eV -4-tet -1-fermi 0-gaus

 Electronic relaxation 2 (details)
   IALGO  =     38    algorithm
   LDIAG  =      T    sub-space diagonalisation (order eigenvalues)
   LSUBROT=      F    optimize rotation matrix (better conditioning)
   TURBO    =      0    0=normal 1=particle mesh
   IRESTART =      0    0=no restart 2=restart with 2 vectors
   NREBOOT  =      0    no. of reboots
   NMIN     =      0    reboot dimension
   EREF     =   0.00    reference energy to select bands
[...]
      1.92100      3.35900     28.66200         0.343074     -0.700315     -2.132184
      3.85900      3.35900      1.33800        -0.516539     -0.679963      2.178233
     -0.96900      5.03900     28.66200         0.130143      0.001979     -3.001057
      0.96900      5.03900      1.33800        -0.242556      0.002132      2.862282
     -3.85900      6.71900     28.66200        -0.652809     -0.168706     -2.092969
     -1.92100      6.71900      1.33800        -0.073121     -0.100585      2.866524
      4.81100      5.03900     28.66200         0.120183      0.002481     -2.944284
      6.74900      5.03900      1.33800         0.730570      0.002082      2.137450
      1.92100      6.71900     28.66200         0.340331      0.700864     -2.135616
      3.85900      6.71900      1.33800        -0.513724      0.679204      2.182002
     -0.96900      8.39900     28.66200         0.629387      0.529969     -2.128106
      0.96900      8.39900      1.33800         0.239805      0.524934      1.424798
    total drift:                               -0.000009      0.000117      0.000112

  FREE ENERGIE OF THE ION-ELECTRON SYSTEM (eV)
  free  energy   TOTEN  =      -186.82752189 eV

  energy  without entropy=     -186.48776486  energy(sigma->0) =     -186.65764337

 Quasi-Newton relaxation of ions (Broydens 2nd method)
  g(Force)  = 0.473E+01   g(Stress)= 0.351E+00

 Reset! Starting new Quasi-Newton update for ions

[...]

 d Force = 0.2396562E+01[ 0.576E-01, 0.474E+01]  d Energy = 0.1819909E+01 0.577E+00
 d Force = 0.9606791E+03[ 0.943E+03, 0.978E+03]  d Ewald  = 0.2511067E+04-0.155E+04

[...]

 retain information from N=  1 steps
 eigenvalues of (default step * inverse Hessian matrix)
  average eigenvalue of G=   0.2425
 eigenvalue spectrum of G is  0.2425

[...]

 d Force = 0.3271124E-01[ 0.320E-01, 0.334E-01]  d Energy = 0.1090499E+01-0.106E+01
 d Force =-0.3107462E+01[-0.318E+01,-0.303E+01]  d Ewald  =-0.1926377E+04 0.192E+04

[...]

 d Force = 0.4745313E+00[ 0.416E+00, 0.533E+00]  d Energy = 0.9997684E+00-0.525E+00
 d Force = 0.4125342E+03[ 0.422E+03, 0.403E+03]  d Ewald  =-0.1541751E+04 0.195E+04

[...]

 d Force = 0.8577865E-01[ 0.797E-01, 0.918E-01]  d Energy = 0.8654164E-01-0.763E-03
 d Force = 0.3783723E+01[ 0.373E+01, 0.383E+01]  d Ewald  = 0.1181345E+03-0.114E+03

[...]

 d Force = 0.1313267E+00[ 0.820E-01, 0.181E+00]  d Energy = 0.1354447E+00-0.412E-02
 d Force = 0.2868650E+02[ 0.285E+02, 0.289E+02]  d Ewald  =-0.8695475E+02 0.116E+03

[...]

 d Force =-0.1216879E-01[-0.155E-01,-0.883E-02]  d Energy =-0.7098487E-02-0.507E-02
 d Force =-0.1708952E+02[-0.171E+02,-0.171E+02]  d Ewald  = 0.2251783E+03-0.242E+03

[...]

 d Force = 0.1284755E-01[ 0.120E-01, 0.137E-01]  d Energy = 0.1435289E-01-0.151E-02
 d Force =-0.1294558E+02[-0.129E+02,-0.130E+02]  d Ewald  = 0.9689855E+02-0.110E+03

[...]

 d Force =-0.1466783E-02[-0.209E-02,-0.845E-03]  d Energy =-0.6201360E-03-0.847E-03
 d Force = 0.1011468E+02[ 0.101E+02, 0.101E+02]  d Ewald  = 0.8866682E+02-0.786E+02

[...]

 d Force = 0.5214321E-02[ 0.425E-02, 0.618E-02]  d Energy = 0.5255990E-02-0.417E-04
 d Force =-0.1924132E+02[-0.192E+02,-0.192E+02]  d Ewald  =-0.1289156E+01-0.180E+02

[...]

 FEWALD executed in parallel

[...]

 eigenvalue-minimisations  :  9760
 total energy-change (2. order) : 0.5485342E-03  (-0.1445200E-03)
 number of electron     159.0000108 magnetization
 augmentation part       -4.2547660 magnetization

 Broyden mixing:
  rms(total) = 0.59818E-02    rms(broyden)= 0.59671E-02
  rms(prec ) = 0.65535E-02
  weight for this iteration     100.00

 eigenvalues of (default mixing * dielectric matrix)
  average eigenvalue GAMMA=   0.4787
  0.8138  0.1437

[...]

----------------------------------------- Iteration   17(   4)  ---------------------------------------

 eigenvalue-minimisations  :  5840
 total energy-change (2. order) :-0.3960987E-05  (-0.1323710E-04)
 number of electron     159.0000108 magnetization
 augmentation part       -4.2547660 magnetization

 Free energy of the ion-electron system (eV)
  alpha Z        PSCENC =        88.67916359
  Ewald energy   TEWEN  =     43976.83485537
  -Hartree energ DENC   =    -49984.15324848
  -exchange      EXHF   =         0.00000000
  -V(xc)+E(xc)   XCENC  =      -233.70999896
  PAW double counting   =      4087.15897388    -3503.18252987
  entropy T*S    EENTRO =        -0.20243503
  eigenvalues    EBANDS =     -1384.60945085
  atomic energy  EATOM  =      6761.44252427
  Solvation  Ediel_sol  =         0.00000000
  free energy    TOTEN  =      -191.74214608 eV

  energy without entropy =     -191.53971105  energy(sigma->0) =     -191.64092856

 average (electrostatic) potential at core
  the test charge radii are     1.2064  1.2296  1.1823  0.9698
  (the norm of the test charge is              1.0000)
       1 -50.0389       2 -50.0380       3 -50.0378       4 -47.0951       5 -47.0916
       6 -47.0945       7 -49.4445       8 -49.4445       9 -49.4453      10 -94.8521
      11 -94.7364      12 -94.8522      13 -95.1358      14 -94.8757      15 -94.7332
      16 -94.8514      17 -95.0824      18 -95.1166      19 -95.1343      20 -94.8495
      21 -95.1335      22 -95.0821      23 -95.0818      24 -94.8485      25 -95.0822
      26 -94.8466      27 -94.7322

 E-fermi :  -3.1755     XC(G=0):  -2.5485     alpha+bet : -2.3454

[...]

 k-point    34 :       0.5000    0.5000    0.0000
  band No.  band energies     occupation
      1     -17.4864      2.00000
      2     -17.2814      2.00000
      3     -16.7077      2.00000
      4     -16.6498      2.00000
      5     -16.5005      2.00000
      6     -16.4054      2.00000
      7     -16.1699      2.00000
      8     -16.1684      2.00000
      9     -16.1646      2.00000
     10     -16.0272      2.00000
     11     -15.9342      2.00000
     12     -15.7407      2.00000
     13     -15.7280      2.00000
     14     -15.6754      2.00000
     15     -15.6628      2.00000
     16     -15.5429      2.00000
     17     -15.5272      2.00000
     18     -15.4903      2.00000
     19      -9.7624      2.00000
     20      -9.2754      2.00000
     21      -9.2638      2.00000
     22      -9.0356      2.00000
     23      -8.8959      2.00000
     24      -8.8592      2.00000
     25      -8.5821      2.00000
     26      -8.5088      2.00000
     27      -8.3862      2.00000
     28      -8.2845      2.00000
     29      -8.2392      2.00000
     30      -8.1472      2.00000
     31      -8.0827      2.00000
     32      -7.9626      2.00000
     33      -7.9624      2.00000
     34      -7.8056      2.00000
     35      -7.7372      2.00000
     36      -7.6702      2.00000
     37      -7.6019      2.00000
     38      -7.3337      2.00000
     39      -7.3229      2.00000
     40      -7.2729      2.00000
     41      -7.0392      2.00000
     42      -7.0135      2.00000
     43      -6.9148      2.00000
     44      -6.8991      2.00000
     45      -6.8777      2.00000
     46      -6.7485      2.00000
     47      -6.6844      2.00000
     48      -6.6347      2.00000
     49      -6.6143      2.00000
     50      -6.5738      2.00000
     51      -6.3483      2.00000
     52      -6.3237      2.00000
     53      -6.2308      2.00000
     54      -6.1656      2.00000
     55      -6.1375      2.00000
     56      -6.0931      2.00000
     57      -6.0645      2.00000
     58      -5.9433      2.00000
     59      -5.9283      2.00000
     60      -5.8247      2.00000
[...]
    106      -0.2825      0.00000
    107      -0.2620      0.00000
    108      -0.1413      0.00000
    109       0.0205      0.00000
    110       0.3227      0.00000
    111       0.3871      0.00000
    112       0.5474      0.00000
    113       0.6062      0.00000
    114       0.8807      0.00000
    115       1.0979      0.00000
    116       1.3427      0.00000
    117       1.3585      0.00000
    118       2.2258      0.00000
    119       2.2396      0.00000
    120       2.3669      0.00000

 soft charge-density along one line, spin component           1
         0         1         2         3         4         5         6         7         8         9
 total charge-density along one line

------------------------ aborting loop because EDIFF is reached ----------------------------------------

  FORCE on cell =-STRESS in cart. coord.  units (eV):
  Direction    XX          YY          ZZ          XY          YZ          ZX
  Alpha Z    88.67916    88.67916    88.67916
  Ewald   48924.22377 48924.43711-53871.84272     0.16677     0.04131     0.08956
  Hartree 49640.94073 49641.03397-49298.17428     0.09833    -0.00063     0.01880
  E(xc)    -609.83172  -609.83774  -616.89116    -0.00057     0.00058    -0.00141
  Local  ************************100612.94605    -0.25683    -0.02706    -0.12322
  n-local  1214.32838  1214.31520  1251.50367    -0.01775     0.01434     0.02189
  augment  -212.77101  -212.75568  -215.53892     0.00656    -0.00138    -0.00632
  Kinetic  2014.99428  2015.01193  2047.14930     0.00742    -0.02688    -0.00069
  Fock        0.00000     0.00000     0.00000     0.00000     0.00000     0.00000
  Total       0.12149     0.12050    -2.16889     0.00392     0.00028    -0.00139
  in kB       0.08062     0.07997    -1.43941     0.00260     0.00019    -0.00092

 VOLUME and BASIS-vectors are now :
  energy-cutoff  :      280.00
  volume of cell :     2414.16
      direct lattice vectors                 reciprocal lattice vectors
     8.348065613  4.819494120  0.000000000     0.059895989  0.103742081  0.000000000
    -8.348325499  4.819945848  0.000000000    -0.059890376  0.103738852  0.000000000
     0.000000000  0.000000000 30.000000000     0.000000000  0.000000000  0.033333333

  length of vectors
     9.639383956  9.639834885 30.000000000     0.119791273  0.119785669  0.033333333

 FORCES acting on ions
    electron-ion (+dipol)            ewald-force                    non-local-force                 convergence-correction
   -.115E+02 0.187E+00 0.260E+00   0.119E+02 -.189E+00 -.371E+00   -.438E+00 0.162E-01 0.109E+00   0.453E-01 -.659E-02 0.107E-02
   0.597E+01 -.100E+02 0.975E-01   -.616E+01 0.104E+02 -.205E+00   0.228E+00 -.378E+00 0.106E+00   -.378E-01 0.351E-01 0.309E-02
   0.587E+01 0.102E+02 0.172E+00   -.605E+01 -.106E+02 -.281E+00   0.211E+00 0.381E+00 0.108E+00   -.373E-01 -.476E-01 0.210E-02
   -.144E+02 -.247E+02 0.193E+01   0.138E+02 0.237E+02 -.217E+01   0.521E+00 0.898E+00 0.240E+00   0.140E-01 0.573E-02 -.445E-02
   0.286E+02 -.111E+00 0.193E+01   -.275E+02 0.937E-01 -.216E+01   -.104E+01 0.663E-03 0.247E+00   -.211E-01 0.182E-01 -.632E-02
   -.145E+02 0.247E+02 0.191E+01   0.140E+02 -.238E+02 -.216E+01   0.519E+00 -.893E+00 0.244E+00   0.318E-01 -.597E-03 -.521E-02
   -.146E+02 0.253E+02 -.400E+00   0.142E+02 -.246E+02 0.388E+00   0.373E+00 -.648E+00 0.643E-02   0.703E-02 -.216E-01 0.359E-02
   0.292E+02 -.825E-01 -.492E+00   -.284E+02 0.909E-01 0.481E+00   -.741E+00 -.686E-02 -.266E-02   -.123E-01 -.422E-02 0.415E-02
   -.146E+02 -.254E+02 -.302E+00   0.142E+02 0.247E+02 0.289E+00   0.369E+00 0.629E+00 0.932E-02   0.179E-01 0.319E-01 0.313E-02
   -.113E+02 -.576E+00 0.547E+03   0.117E+02 -.762E-02 -.551E+03   -.513E+00 0.639E+00 0.417E+01   0.602E-01 -.542E-01 0.148E-01
   -.428E+01 0.774E+01 -.526E+03   0.481E+01 -.861E+01 0.530E+03   -.540E+00 0.951E+00 -.411E+01   -.369E-02 -.752E-01 -.384E-01
   0.503E+01 -.102E+02 0.547E+03   -.577E+01 0.103E+02 -.552E+03   0.804E+00 -.124E+00 0.418E+01   -.636E-01 0.211E-01 0.878E-02
   0.689E+01 0.120E+02 -.580E+03   -.636E+01 -.111E+02 0.583E+03   -.553E+00 -.965E+00 -.376E+01   0.125E-01 0.112E-01 0.138E-01
   0.117E+00 0.153E+00 0.521E+03   -.924E-01 -.127E+00 -.526E+03   0.744E-02 0.136E-02 0.406E+01   -.349E-01 -.288E-01 0.723E-01
   0.881E+01 -.360E-02 -.525E+03   -.983E+01 0.222E-01 0.530E+03   0.109E+01 0.854E-02 -.411E+01   -.614E-01 -.277E-01 -.287E-01
   0.641E+01 0.933E+01 0.547E+03   -.610E+01 -.100E+02 -.551E+03   -.300E+00 0.762E+00 0.417E+01   -.641E-02 -.381E-01 -.339E-02
   0.108E+02 0.188E+02 -.589E+03   -.107E+02 -.186E+02 0.593E+03   -.406E-01 -.713E-01 -.384E+01   -.246E-01 -.365E-01 0.107E-01
   -.352E-02 -.893E-01 0.635E+03   -.141E-02 0.887E-01 -.639E+03   -.148E-02 -.547E-02 0.392E+01   0.469E-02 0.439E-02 0.716E-02
   -.138E+02 -.832E-01 -.580E+03   0.127E+02 0.807E-01 0.583E+03   0.111E+01 -.805E-02 -.377E+01   -.119E-01 0.966E-02 0.561E-02
   0.485E+01 0.102E+02 0.547E+03   -.561E+01 -.103E+02 -.551E+03   0.800E+00 0.120E+00 0.418E+01   -.322E-01 -.219E-01 -.804E-02
   0.684E+01 -.121E+02 -.579E+03   -.631E+01 0.112E+02 0.583E+03   -.558E+00 0.958E+00 -.377E+01   0.206E-01 -.593E-02 0.103E-01
   -.939E-01 0.341E-02 0.635E+03   0.959E-01 -.738E-02 -.639E+03   -.442E-03 0.318E-02 0.349E+01   -.261E-02 0.476E-03 -.309E-01
   -.220E+02 0.902E-01 -.589E+03   0.218E+02 -.892E-01 0.593E+03   0.987E-01 0.411E-02 -.383E+01   0.981E-01 -.516E-02 -.141E-02
   0.635E+01 -.953E+01 0.547E+03   -.607E+01 0.102E+02 -.551E+03   -.294E+00 -.753E+00 0.418E+01   0.527E-02 0.656E-01 0.183E-01
   0.109E+02 -.189E+02 -.589E+03   -.108E+02 0.187E+02 0.593E+03   -.387E-01 0.763E-01 -.384E+01   -.459E-01 0.627E-01 -.466E-02
   -.114E+02 0.614E+00 0.547E+03   0.118E+02 -.381E-01 -.551E+03   -.503E+00 -.628E+00 0.418E+01   0.632E-01 0.505E-01 0.192E-01
   -.425E+01 -.768E+01 -.525E+03   0.476E+01 0.855E+01 0.529E+03   -.544E+00 -.941E+00 -.411E+01   0.226E-01 0.654E-01 -.560E-01
   -.377E-01 -.353E-01 -.250E+01   -.320E-13 -.480E-13 -.682E-12   0.288E-01 0.274E-01 0.249E+01   0.749E-02 0.782E-02 0.105E-01

 POSITION                                       TOTAL-FORCE (eV/Angst)
     -0.06020      0.00128     -0.00906         0.011263      0.007991     -0.000560
     -5.53344      3.15957     -0.00837        -0.001996      0.011192      0.002140
      2.81388      1.66131     -0.00875        -0.009820     -0.008556      0.000256
      5.45888      6.24285     -0.00354        -0.007366     -0.015691     -0.002817
      2.99414      4.81866     -0.00359         0.017464      0.001449      0.001801
      5.45832      3.39546     -0.00351        -0.006660      0.017150     -0.001389
     -0.11085      3.40336      0.00631        -0.011699      0.020024     -0.001600
     -2.56181      4.81800      0.00663         0.025561     -0.002748     -0.009491
     -0.11050      6.23331      0.00602        -0.012015     -0.025847     -0.000362
     -0.91592      1.59300     28.51868        -0.003449      0.001028      0.013994
      0.92488      1.61168      1.42101        -0.008584      0.008037     -0.007132
     -3.72800      3.21642     28.51838         0.005341     -0.001058      0.014164
     -1.87984      3.16957      1.56969        -0.006348     -0.013316     -0.003697
     -6.49224      4.81981     28.59910        -0.002901     -0.000663     -0.002770
     -4.63182      4.81951      1.42016         0.014433     -0.000504     -0.008096
      1.86049      3.19530     28.51910        -0.003583      0.007807      0.013138
      3.69289      3.18282      1.59625         0.002628      0.006755      0.000292
     -0.92783      4.81865     28.26488        -0.001674     -0.001732     -0.004972
      0.97665      4.81874      1.56953         0.011438     -0.000932     -0.008750
     -3.72800      6.42160     28.51948         0.007608     -0.000332      0.017419
     -1.88004      6.46824      1.56874        -0.006544      0.011556     -0.007266
      4.63766      4.81901     28.28319        -0.001019     -0.000310     -0.028704
      6.52608      4.81883      1.59459        -0.000886     -0.000019      0.004017
      1.86041      6.44272     28.51957        -0.002791     -0.005444      0.014816
      3.69292      6.45476      1.59566         0.001636     -0.004760      0.002125
     -0.91591      8.04494     28.52021        -0.001777     -0.001837      0.018847
      0.92418      8.02614      1.41969        -0.008259     -0.009241     -0.015406
    total drift:                               -0.001411     -0.000022      0.001385

  FREE ENERGIE OF THE ION-ELECTRON SYSTEM (eV)
  free  energy   TOTEN  =      -191.74214608 eV

  energy  without entropy=     -191.53971105  energy(sigma->0) =     -191.64092856

 d Force = 0.8176577E-03[ 0.503E-03, 0.113E-02]  d Energy = 0.7551120E-03 0.625E-04
 d Force =-0.8434582E+01[-0.843E+01,-0.844E+01]  d Ewald  = 0.1105730E+01-0.954E+01

 Quasi-Newton relaxation of ions (Broydens 2nd method)
  g(Force)  = 0.372E-03   g(Stress)= 0.524E-04

 retain information from N=  1 steps
 eigenvalues of (default step * inverse Hessian matrix)
  average eigenvalue of G=   0.6520
 eigenvalue spectrum of G is  0.6520

 reached required accuracy - stopping structural energy minimisation