 vasp.5.4.1 05Feb16 (build Jul 05 2020 17:13:04) complex

 executed on           IFC91_ompi date 2024.07.19  20:50:41

 INCAR:
 POTCAR:   PAW_PBE V 08Apr2002
 POTCAR:   PAW_PBE Mo 08Apr2002
 POTCAR:   PAW_PBE W 08Apr2002
 POTCAR:    PAW_PBE S 17Jan2003

 POTCAR:   PAW_PBE V 08Apr2002
   VRHFIN =V: p6 d4 s1

   TITEL  = PAW_PBE V 08Apr2002
   POMASS =   50.941; ZVAL   =    5.000    mass and valenz
   ENMAX  =  192.543; ENMIN  =  144.408 eV
   QCUT   =   -3.762; QGAM   =    7.524    optimization parameters

   Description
     l     E      TYP  RCUT    TYP  RCUT
     2   .000     23  2.700
     2   .000     23  2.700
     0   .000     23  2.700
     0  2.000     23  2.700
     1   .000     23  2.700
     1  2.000     23  2.700
     3   .000      7   .000

 POTCAR:   PAW_PBE Mo 08Apr2002
   VRHFIN =Mo: 4p5s4d

[...]

 POTCAR:   PAW_PBE W 08Apr2002
   VRHFIN =W : 6s5d

   TITEL  = PAW_PBE W 08Apr2002
   POMASS =  183.850; ZVAL   =    6.000    mass and valenz
   ENMAX  =  223.057; ENMIN  =  167.293 eV
   QCUT   =   -4.049; QGAM   =    8.098    optimization parameters

[...]

 POTCAR:    PAW_PBE S 17Jan2003
   VRHFIN =S : s2p4

   TITEL  = PAW_PBE S 17Jan2003
   POMASS =   32.066; ZVAL   =    6.000    mass and valenz
   ENMAX  =  280.000; ENMIN  =  194.016 eV
   QCUT   =   -4.360; QGAM   =    8.721    optimization parameters

   Description
     l     E      TYP  RCUT    TYP  RCUT
     0   .000     23  1.900
     0   .000     23  1.900
     1   .000     23  1.900
     1   .000     23  1.900
     2   .000     23  1.900

 PAW_PBE V 08Apr2002                    :
 PAW_PBE Mo 08Apr2002                   :
 PAW_PBE W 08Apr2002                    :
  PAW_PBE S 17Jan2003                   :

 POSCAR: crystal structure from VMoWS2 with Hexag
  positions in cartesian coordinates
 exchange correlation table for  LEXCH =        8
   RHO(1)=    0.500       N(1)  =     2000
   RHO(2)=  100.500       N(2)  =     4000

 ion  position               nearest neighbor table
   1  0.000  0.667  0.000-  27 2.34  12 2.34  14 2.36  15 2.36  24 2.36  25 2.36
   2  0.333  0.000  0.000-  11 2.34  20 2.34  17 2.36  16 2.36  15 2.36  14 2.36
   3  0.000  0.000  0.000-  23 2.34  14 2.34  11 2.36  10 2.36  27 2.36  26 2.36
   4  0.667  0.333  0.000-  19 2.34  22 2.34  25 2.36  24 2.36  17 2.36  16 2.36   5 3.34   9 3.34
                             8 3.34   6 3.34
   5  1.000  0.333  0.000-  25 2.34  10 2.34  13 2.36  12 2.36  22 2.36  23 2.36   4 3.34   6 3.34
                             8 3.36   7 3.36
   6  0.333  0.333  0.000-  13 2.34  16 2.34  19 2.36  18 2.36  11 2.36  10 2.36   7 3.34   5 3.34
                             4 3.34   9 3.36
   7  0.333  0.667  0.000-  15 2.34  18 2.34  20 2.36  21 2.36  13 2.36  12 2.36   6 3.34   9 3.34
                             8 3.36   5 3.36
   8  0.667  0.000  0.000-  17 2.34  26 2.34  23 2.36  22 2.36  21 2.36  20 2.36   9 3.34   4 3.34
                             5 3.36   7 3.36
   9  0.667  0.667  0.000-  21 2.34  24 2.34  27 2.36  26 2.36  19 2.36  18 2.36   8 3.34   4 3.34
                             7 3.34   6 3.36
  10  0.111  0.222  0.955-   5 2.34   3 2.36   6 2.36
  11  0.222  0.111  0.045-   2 2.34   3 2.36   6 2.36
  12  0.111  0.556  0.955-   1 2.34   5 2.36   7 2.36
  13  0.222  0.444  0.045-   6 2.34   5 2.36   7 2.36
  14  0.111  0.889  0.955-   3 2.34   1 2.36   2 2.36
  15  0.222  0.777  0.045-   7 2.34   1 2.36   2 2.36
  16  0.444  0.222  0.955-   6 2.34   2 2.36   4 2.36
  17  0.556  0.111  0.045-   8 2.34   2 2.36   4 2.36
  18  0.444  0.556  0.955-   7 2.34   6 2.36   9 2.36
  19  0.556  0.444  0.045-   4 2.34   6 2.36   9 2.36
  20  0.444  0.889  0.955-   2 2.34   7 2.36   8 2.36
  21  0.556  0.777  0.045-   9 2.34   7 2.36   8 2.36
  22  0.777  0.222  0.955-   4 2.34   8 2.36   5 2.36
  23  0.889  0.111  0.045-   3 2.34   8 2.36   5 2.36
  24  0.777  0.556  0.955-   9 2.34   4 2.36   1 2.36
  25  0.889  0.444  0.045-   5 2.34   4 2.36   1 2.36
  26  0.777  0.889  0.955-   8 2.34   9 2.36   3 2.36
  27  0.889  0.777  0.045-   1 2.34   9 2.36   3 2.36

IMPORTANT INFORMATION: All symmetrisations will be switched off!
NOSYMM: (Re-)initialisation of all symmetry stuff for point group C_1.

 KPOINTS: K-POINTS 	#supercell of CrS2 in hexagona

Automatic generation of k-mesh.
Space group operators:
 irot       det(A)        alpha          n_x          n_y          n_z        tau_x        tau_y        tau_z
    1     1.000000     0.000000     1.000000     0.000000     0.000000     0.000000     0.000000     0.000000

 Subroutine IBZKPT returns following result:

 Found     34 irreducible k-points:

 Following reciprocal coordinates:
            Coordinates               Weight
  0.000000  0.000000  0.000000      1.000000
  0.125000  0.000000  0.000000      2.000000
  0.250000  0.000000  0.000000      2.000000
  0.375000  0.000000  0.000000      2.000000
  0.500000  0.000000  0.000000      1.000000
  0.000000  0.125000  0.000000      2.000000
  0.125000  0.125000  0.000000      2.000000
  0.250000  0.125000  0.000000      2.000000
  0.375000  0.125000  0.000000      2.000000
  0.500000  0.125000  0.000000      2.000000
 -0.375000  0.125000  0.000000      2.000000
 -0.250000  0.125000  0.000000      2.000000
 -0.125000  0.125000  0.000000      2.000000
  0.000000  0.250000  0.000000      2.000000
  0.125000  0.250000  0.000000      2.000000
  0.250000  0.250000  0.000000      2.000000
  0.375000  0.250000  0.000000      2.000000
  0.500000  0.250000  0.000000      2.000000
 -0.375000  0.250000  0.000000      2.000000
 -0.250000  0.250000  0.000000      2.000000
 -0.125000  0.250000  0.000000      2.000000
 -0.000000  0.375000  0.000000      2.000000
  0.125000  0.375000  0.000000      2.000000
  0.250000  0.375000  0.000000      2.000000
  0.375000  0.375000  0.000000      2.000000
  0.500000  0.375000  0.000000      2.000000
 -0.375000  0.375000  0.000000      2.000000
 -0.250000  0.375000  0.000000      2.000000
 -0.125000  0.375000  0.000000      2.000000
  0.000000  0.500000  0.000000      1.000000
  0.125000  0.500000  0.000000      2.000000
  0.250000  0.500000  0.000000      2.000000
  0.375000  0.500000  0.000000      2.000000
  0.500000  0.500000  0.000000      1.000000

 Following cartesian coordinates:
            Coordinates               Weight
  0.000000  0.000000  0.000000      1.000000
  0.007209  0.012401  0.000000      2.000000
  0.014418  0.024802  0.000000      2.000000
  0.021626  0.037202  0.000000      2.000000
  0.028835  0.049603  0.000000      1.000000
 -0.007209  0.012401  0.000000      2.000000
  0.000000  0.024802  0.000000      2.000000
  0.007209  0.037202  0.000000      2.000000
  0.014418  0.049603  0.000000      2.000000
  0.021626  0.062004  0.000000      2.000000
 -0.028835 -0.024802  0.000000      2.000000
 -0.021626 -0.012401  0.000000      2.000000
 -0.014418  0.000000  0.000000      2.000000
 -0.014418  0.024802  0.000000      2.000000
 -0.007209  0.037202  0.000000      2.000000
  0.000000  0.049603  0.000000      2.000000
  0.007209  0.062004  0.000000      2.000000
  0.014418  0.074405  0.000000      2.000000
 -0.036044 -0.012401  0.000000      2.000000
 -0.028835  0.000000  0.000000      2.000000
 -0.021626  0.012401  0.000000      2.000000
 -0.021626  0.037202  0.000000      2.000000
 -0.014418  0.049603  0.000000      2.000000
 -0.007209  0.062004  0.000000      2.000000
  0.000000  0.074405  0.000000      2.000000
  0.007209  0.086806  0.000000      2.000000
 -0.043253  0.000000  0.000000      2.000000
 -0.036044  0.012401  0.000000      2.000000
 -0.028835  0.024802  0.000000      2.000000
 -0.028835  0.049603  0.000000      1.000000
 -0.021626  0.062004  0.000000      2.000000
 -0.014418  0.074405  0.000000      2.000000
 -0.007209  0.086806  0.000000      2.000000
  0.000000  0.099206  0.000000      1.000000

 I would recommend the setting:
   dimension x,y,z NGX =    41 NGY =   41 NGZ =  123
 SYSTEM =  unknown system
 POSCAR =  crystal structure from VMoWS2 with Hexag

 Startparameter for this run:
   NWRITE =      2    write-flag & timer
   PREC   = normal    normal or accurate (medium, high low for compatibility)
   ISTART =      0    job   : 0-new  1-cont  2-samecut
   ICHARG =      2    charge: 1-file 2-atom 10-const
   ISPIN  =      1    spin polarized calculation?
   LNONCOLLINEAR =      F non collinear calculations
   LSORBIT =      F    spin-orbit coupling
   INIWAV =      1    electr: 0-lowe 1-rand  2-diag
   LASPH  =      F    aspherical Exc in radial PAW
   METAGGA=      F    non-selfconsistent MetaGGA calc.

 Electronic Relaxation 1
   ENCUT  =  280.0 eV  20.58 Ry    4.54 a.u.  13.68 13.68 40.93*2*pi/ulx,y,z
   ENINI  =  280.0     initial cutoff
   ENAUG  =  373.4 eV  augmentation charge cutoff
   NELM   =     60;   NELMIN=  2; NELMDL= -5     # of ELM steps
   EDIFF  = 0.1E-03   stopping-criterion for ELM
   LREAL  =      F    real-space projection
   NLSPLINE    = F    spline interpolate recip. space projectors
   LCOMPAT=      F    compatible to vasp.4.4
   GGA_COMPAT  = T    GGA compatible to vasp.4.4-vasp.4.6
   LMAXPAW     = -100 max onsite density
   LMAXMIX     =    2 max onsite mixed and CHGCAR
   VOSKOWN=      0    Vosko Wilk Nusair interpolation
   ROPT   =    0.00000   0.00000   0.00000   0.00000
 Ionic relaxation
   EDIFFG = 0.1E-02   stopping-criterion for IOM
   NSW    =    100    number of steps for IOM
   NBLOCK =      1;   KBLOCK =    100    inner block; outer block
   IBRION =      1    ionic relax: 0-MD 1-quasi-New 2-CG
   NFREE  =      0    steps in history (QN), initial steepest desc. (CG)
   ISIF   =      3    stress and relaxation
   IWAVPR =     11    prediction:  0-non 1-charg 2-wave 3-comb
   ISYM   =      0    0-nonsym 1-usesym 2-fastsym
   LCORR  =      T    Harris-Foulkes like correction to forces

   POTIM  = 0.5000    time-step for ionic-motion
   TEIN   =    0.0    initial temperature
   TEBEG  =    0.0;   TEEND  =   0.0 temperature during run
   SMASS  =  -3.00    Nose mass-parameter (am)
   estimated Nose-frequenzy (Omega)   =  0.10E-29 period in steps =****** mass=  -0.230E-26a.u.
   SCALEE = 1.0000    scale energy and forces
   NPACO  =    256;   APACO  = 16.0  distance and # of slots for P.C.
   PSTRESS=    0.0 pullay stress

  Mass of Ions in am
   POMASS =  50.94 95.94183.85 32.07
  Ionic Valenz
   ZVAL   =   5.00  6.00  6.00  6.00
  Atomic Wigner-Seitz radii
  virtual crystal weights
   VCA    =   1.00  1.00  1.00  1.00
   NELECT =     159.0000    total number of electrons
   NUPDOWN=      -1.0000    fix difference up-down

 DOS related values:
   EMIN   =  10.00;   EMAX   =-10.00  energy-range for DOS
   EFERMI =   0.00
   ISMEAR =     0;   SIGMA  =   0.20  broadening in eV -4-tet -1-fermi 0-gaus

 Electronic relaxation 2 (details)
   IALGO  =     38    algorithm
   LDIAG  =      T    sub-space diagonalisation (order eigenvalues)
   LSUBROT=      F    optimize rotation matrix (better conditioning)
   TURBO    =      0    0=normal 1=particle mesh
   IRESTART =      0    0=no restart 2=restart with 2 vectors
   NREBOOT  =      0    no. of reboots
   NMIN     =      0    reboot dimension
   EREF     =   0.00    reference energy to select bands
[...]
     -0.96900      5.03900     28.66200         0.044500      0.145163     -2.978602
      0.96900      5.03900      1.33800        -0.174806      0.149629      2.897567
     -3.85900      6.71900     28.66200        -0.582496     -0.012999     -2.084811
     -1.92100      6.71900      1.33800        -0.157509      0.040521      2.862766
      4.81100      5.03900     28.66200         0.204402     -0.138752     -2.889235
      6.74900      5.03900      1.33800         0.646032     -0.151849      2.143905
      1.92100      6.71900     28.66200         0.341408      0.711335     -2.167554
      3.85900      6.71900      1.33800        -0.513161      0.680453      2.150853
     -0.96900      8.39900     28.66200         0.471978      0.548581     -2.128323
      0.96900      8.39900      1.33800         0.236102      0.528489      1.400437
    total drift:                               -0.000011      0.000130      0.000036

  FREE ENERGIE OF THE ION-ELECTRON SYSTEM (eV)
  free  energy   TOTEN  =      -186.82611475 eV

  energy  without entropy=     -186.48495815  energy(sigma->0) =     -186.65553645

 Quasi-Newton relaxation of ions (Broydens 2nd method)
  g(Force)  = 0.474E+01   g(Stress)= 0.349E+00

 Reset! Starting new Quasi-Newton update for ions

[...]

 d Force = 0.2406441E+01[ 0.697E-01, 0.474E+01]  d Energy = 0.1829327E+01 0.577E+00
 d Force = 0.9607770E+03[ 0.943E+03, 0.978E+03]  d Ewald  = 0.2511648E+04-0.155E+04

[...]

 retain information from N=  1 steps
 eigenvalues of (default step * inverse Hessian matrix)
  average eigenvalue of G=   0.2401
 eigenvalue spectrum of G is  0.2401

[...]

 d Force = 0.3715771E-01[ 0.367E-01, 0.376E-01]  d Energy = 0.1095817E+01-0.106E+01
 d Force =-0.3075844E+01[-0.315E+01,-0.300E+01]  d Ewald  =-0.1924429E+04 0.192E+04

[...]

 d Force = 0.4964996E+00[ 0.444E+00, 0.549E+00]  d Energy = 0.1021351E+01-0.525E+00
 d Force = 0.4105747E+03[ 0.420E+03, 0.401E+03]  d Ewald  =-0.1527239E+04 0.194E+04

[...]

 d Force = 0.1502585E+00[ 0.136E+00, 0.164E+00]  d Energy = 0.1523972E+00-0.214E-02
 d Force = 0.1225213E+00[ 0.291E+00,-0.463E-01]  d Ewald  =-0.2278478E+02 0.229E+02

[...]

 d Force = 0.1560869E+00[ 0.130E+00, 0.182E+00]  d Energy = 0.1626777E+00-0.659E-02
 d Force =-0.1318106E+02[-0.127E+02,-0.137E+02]  d Ewald  = 0.1622528E+03-0.175E+03

[...]

 d Force = 0.1516239E-01[ 0.146E-01, 0.158E-01]  d Energy = 0.1504719E-01 0.115E-03
 d Force = 0.2017400E+01[ 0.207E+01, 0.196E+01]  d Ewald  = 0.8696412E+00 0.115E+01

[...]

 d Force =-0.1444523E-02[-0.283E-02,-0.624E-04]  d Energy =-0.1450272E-02 0.575E-05
 d Force =-0.1971829E+01[-0.196E+01,-0.198E+01]  d Ewald  =-0.1874276E+02 0.168E+02

[...]

 d Force = 0.3613513E-04[-0.126E-03, 0.199E-03]  d Energy = 0.6503498E-04-0.289E-04
 d Force = 0.1154865E+01[ 0.116E+01, 0.115E+01]  d Ewald  = 0.3145992E+02-0.303E+02

[...]

 d Force = 0.7390318E-03[ 0.714E-03, 0.764E-03]  d Energy = 0.6806403E-03 0.584E-04
 d Force =-0.3037734E+00[-0.302E+00,-0.306E+00]  d Ewald  =-0.6567984E+01 0.626E+01

[...]

 d Force = 0.1964749E-02[ 0.175E-02, 0.218E-02]  d Energy = 0.1713662E-02 0.251E-03
 d Force = 0.4504886E+01[ 0.452E+01, 0.449E+01]  d Ewald  =-0.1414030E+02 0.186E+02

[...]

 FEWALD executed in parallel

[...]

 eigenvalue-minimisations  :  9960
 total energy-change (2. order) : 0.6139082E-03  (-0.6313814E-04)
 number of electron     158.9999773 magnetization
 augmentation part       -4.2218993 magnetization

 Broyden mixing:
  rms(total) = 0.23024E-02    rms(broyden)= 0.22885E-02
  rms(prec ) = 0.24274E-02
  weight for this iteration     100.00

 eigenvalues of (default mixing * dielectric matrix)
  average eigenvalue GAMMA=   0.5707
  0.9341  0.2074

[...]

----------------------------------------- Iteration   24(   4)  ---------------------------------------

 eigenvalue-minimisations  :  6040
 total energy-change (2. order) :-0.2523232E-04  (-0.4799698E-05)
 number of electron     158.9999773 magnetization
 augmentation part       -4.2218993 magnetization

 Free energy of the ion-electron system (eV)
  alpha Z        PSCENC =        89.52485937
  Ewald energy   TEWEN  =     44400.43725460
  -Hartree energ DENC   =    -50408.19388967
  -exchange      EXHF   =         0.00000000
  -V(xc)+E(xc)   XCENC  =      -233.52208559
  PAW double counting   =      4098.96066426    -3515.01385003
  entropy T*S    EENTRO =        -0.13358933
  eigenvalues    EBANDS =     -1385.83810896
  atomic energy  EATOM  =      6761.44252427
  Solvation  Ediel_sol  =         0.00000000
  free energy    TOTEN  =      -192.33622109 eV

  energy without entropy =     -192.20263176  energy(sigma->0) =     -192.26942642

 average (electrostatic) potential at core
  the test charge radii are     1.2064  1.2296  1.1823  0.9698
  (the norm of the test charge is              1.0000)
       1 -49.7025       2 -49.7804       3 -49.7886       4 -47.0568       5 -47.0616
       6 -47.1537       7 -49.5965       8 -49.6174       9 -49.5910      10 -95.0018
      11 -94.9587      12 -95.1049      13 -95.2381      14 -94.4892      15 -94.5632
      16 -95.0074      17 -95.1236      18 -95.2264      19 -95.2408      20 -94.6803
      21 -94.8481      22 -95.2891      23 -95.1230      24 -95.1054      25 -94.9943
      26 -94.6820      27 -94.5615

 E-fermi :  -3.2479     XC(G=0):  -2.5619     alpha+bet : -2.3678

[...]

 k-point    34 :       0.5000    0.5000    0.0000
  band No.  band energies     occupation
      1     -17.5061      2.00000
      2     -17.3496      2.00000
      3     -16.7455      2.00000
      4     -16.7167      2.00000
      5     -16.5825      2.00000
      6     -16.5514      2.00000
      7     -16.2779      2.00000
      8     -16.1985      2.00000
      9     -16.1175      2.00000
     10     -16.0825      2.00000
     11     -15.8794      2.00000
     12     -15.8342      2.00000
     13     -15.7690      2.00000
     14     -15.6983      2.00000
     15     -15.6422      2.00000
     16     -15.4313      2.00000
     17     -15.3392      2.00000
     18     -15.2154      2.00000
     19      -9.8144      2.00000
     20      -9.3526      2.00000
     21      -9.3030      2.00000
     22      -9.0082      2.00000
     23      -8.9405      2.00000
     24      -8.8322      2.00000
     25      -8.6782      2.00000
     26      -8.6620      2.00000
     27      -8.4410      2.00000
     28      -8.2932      2.00000
     29      -8.2300      2.00000
     30      -8.1332      2.00000
     31      -8.0828      2.00000
     32      -8.0131      2.00000
     33      -7.9230      2.00000
     34      -7.8470      2.00000
     35      -7.7457      2.00000
     36      -7.6826      2.00000
     37      -7.6427      2.00000
     38      -7.5957      2.00000
     39      -7.4670      2.00000
     40      -7.3365      2.00000
     41      -7.0927      2.00000
     42      -7.0720      2.00000
     43      -7.0022      2.00000
     44      -6.8532      2.00000
     45      -6.8259      2.00000
     46      -6.7130      2.00000
     47      -6.6510      2.00000
     48      -6.5894      2.00000
     49      -6.5210      2.00000
     50      -6.4613      2.00000
     51      -6.4128      2.00000
     52      -6.3458      2.00000
     53      -6.2693      2.00000
     54      -6.1826      2.00000
     55      -6.1111      2.00000
     56      -6.0969      2.00000
     57      -6.0100      2.00000
     58      -5.8463      2.00000
     59      -5.8155      2.00000
     60      -5.7923      2.00000
[...]
    106      -0.4063      0.00000
    107      -0.2970      0.00000
    108      -0.1159      0.00000
    109       0.0211      0.00000
    110       0.1987      0.00000
    111       0.2769      0.00000
    112       0.5866      0.00000
    113       0.7726      0.00000
    114       1.0461      0.00000
    115       1.1423      0.00000
    116       1.3265      0.00000
    117       1.5707      0.00000
    118       2.2529      0.00000
    119       2.2667      0.00000
    120       2.4068      0.00000

 soft charge-density along one line, spin component           1
         0         1         2         3         4         5         6         7         8         9
 total charge-density along one line

------------------------ aborting loop because EDIFF is reached ----------------------------------------

  FORCE on cell =-STRESS in cart. coord.  units (eV):
  Direction    XX          YY          ZZ          XY          YZ          ZX
  Alpha Z    89.52486    89.52486    89.52486
  Ewald   49363.69361 49318.11142-54281.38477    39.06809   -21.22365    12.03961
  Hartree 50069.09213 50040.05973-49701.04308    24.95647   -11.83626     6.79209
  E(xc)    -609.59691  -610.64851  -617.88086     0.91331     0.94875    -0.54249
  Local  ************************101419.87260   -57.17662    41.20794   -23.51138
  n-local  1213.61197  1215.52460  1248.92597    -1.68219     2.26292    -1.35478
  augment  -213.33152  -212.83705  -214.63574    -0.43985    -0.98004     0.56820
  Kinetic  2008.48786  2015.01899  2054.72092    -5.64136   -10.19108     5.90038
  Fock        0.00000     0.00000     0.00000     0.00000     0.00000     0.00000
  Total       0.06383     0.07717    -1.90010    -0.00214     0.18859    -0.10838
  in kB       0.04277     0.05170    -1.27305    -0.00143     0.12635    -0.07261

 VOLUME and BASIS-vectors are now :
  energy-cutoff  :      280.00
  volume of cell :     2391.35
      direct lattice vectors                 reciprocal lattice vectors
     8.286376563  4.785298426  0.000000000     0.060493638  0.104220655  0.000000000
    -8.307611089  4.822053875  0.000000000    -0.060032533  0.103954264  0.000000000
     0.000000000  0.000000000 30.000000000     0.000000000  0.000000000  0.033333333

  length of vectors
     9.568861874  9.605654875 30.000000000     0.120504876  0.120043301  0.033333333

 FORCES acting on ions
    electron-ion (+dipol)            ewald-force                    non-local-force                 convergence-correction
   0.132E+02 -.230E+02 0.127E+02   -.139E+02 0.243E+02 -.125E+02   0.763E+00 -.132E+01 -.287E+00   0.176E-02 0.212E-01 -.130E-01
   -.114E+02 0.215E+02 -.151E+02   0.119E+02 -.230E+02 0.148E+02   -.500E+00 0.148E+01 0.236E+00   0.921E-03 0.413E-02 0.173E-01
   -.128E+02 0.204E+02 -.150E+02   0.139E+02 -.216E+02 0.148E+02   -.103E+01 0.118E+01 0.238E+00   0.133E-01 0.192E-01 0.152E-01
   0.599E+01 0.295E+01 -.192E+01   -.577E+01 -.277E+01 0.193E+01   -.249E+00 -.111E+00 -.218E-01   0.724E-02 -.788E-01 0.326E-02
   -.605E+01 -.416E+01 -.195E+01   0.579E+01 0.402E+01 0.197E+01   0.223E+00 0.162E+00 -.224E-01   0.345E-01 -.231E-01 -.165E-02
   -.602E+01 0.117E+02 -.357E+01   0.589E+01 -.115E+02 0.356E+01   0.105E+00 -.184E+00 0.885E-02   0.369E-01 -.370E-01 0.223E-02
   0.185E+02 -.270E+02 0.230E+02   -.191E+02 0.277E+02 -.228E+02   0.571E+00 -.707E+00 -.222E+00   -.997E-02 0.259E-01 -.323E-02
   -.172E+02 0.298E+02 -.190E+02   0.176E+02 -.304E+02 0.189E+02   -.381E+00 0.654E+00 0.168E+00   -.232E-01 -.196E-01 0.411E-02
   0.144E+02 -.297E+02 0.229E+02   -.147E+02 0.306E+02 -.227E+02   0.322E+00 -.833E+00 -.218E+00   -.225E-01 0.156E-02 -.780E-03
   -.979E+01 0.116E+02 0.589E+03   0.108E+02 -.132E+02 -.592E+03   -.104E+01 0.159E+01 0.311E+01   0.197E-01 -.169E-01 0.142E-01
   -.115E+02 0.202E+02 -.586E+03   0.120E+02 -.212E+02 0.590E+03   -.591E+00 0.102E+01 -.322E+01   0.597E-01 -.222E-02 -.631E-01
   0.128E+02 -.200E+02 0.606E+03   -.134E+02 0.206E+02 -.609E+03   0.580E+00 -.642E+00 0.366E+01   0.259E-01 0.179E-01 -.279E-01
   0.675E+01 -.688E+01 -.612E+03   -.722E+01 0.820E+01 0.616E+03   0.458E+00 -.130E+01 -.351E+01   0.946E-02 -.616E-02 0.102E-01
   -.377E+01 0.646E+01 0.481E+03   0.365E+01 -.635E+01 -.486E+03   0.117E+00 -.214E+00 0.457E+01   -.129E-02 0.961E-01 0.279E-01
   0.807E+01 -.113E+02 -.488E+03   -.841E+01 0.111E+02 0.493E+03   0.365E+00 0.773E-01 -.487E+01   -.214E-01 0.980E-01 -.103E-01
   -.541E+01 0.147E+02 0.590E+03   0.621E+01 -.164E+02 -.593E+03   -.832E+00 0.168E+01 0.312E+01   0.363E-01 -.682E-01 0.566E-01
   -.706E+01 0.239E+02 -.610E+03   0.742E+01 -.246E+02 0.614E+03   -.330E+00 0.760E+00 -.364E+01   -.286E-01 -.602E-01 -.551E-01
   0.110E+02 -.187E+02 0.633E+03   -.112E+02 0.190E+02 -.637E+03   0.205E+00 -.350E+00 0.403E+01   -.913E-02 -.103E-02 -.979E-02
   0.281E+01 -.949E+01 -.614E+03   -.373E+01 0.106E+02 0.617E+03   0.908E+00 -.102E+01 -.350E+01   0.706E-02 -.305E-01 0.160E-01
   -.134E+01 0.936E+01 0.497E+03   0.937E+00 -.899E+01 -.502E+03   0.450E+00 -.389E+00 0.505E+01   -.602E-01 0.191E-01 0.426E-01
   0.635E+01 -.108E+02 -.505E+03   -.614E+01 0.105E+02 0.511E+03   -.175E+00 0.295E+00 -.525E+01   -.267E-01 0.131E-01 0.758E-03
   -.746E+01 0.128E+02 0.621E+03   0.813E+01 -.140E+02 -.624E+03   -.680E+00 0.114E+01 0.348E+01   0.106E-01 -.278E-01 -.347E-03
   -.173E+02 0.179E+02 -.610E+03   0.178E+02 -.186E+02 0.613E+03   -.494E+00 0.663E+00 -.365E+01   0.126E-01 -.719E-02 -.170E-01
   0.108E+02 -.213E+02 0.606E+03   -.110E+02 0.221E+02 -.609E+03   0.268E+00 -.827E+00 0.366E+01   -.170E-01 -.149E-01 -.380E-01
   0.844E+01 -.148E+02 -.607E+03   -.914E+01 0.160E+02 0.610E+03   0.676E+00 -.121E+01 -.319E+01   0.217E-01 -.292E-01 0.459E-01
   -.738E+01 0.570E+01 0.497E+03   0.728E+01 -.513E+01 -.502E+03   0.118E+00 -.582E+00 0.505E+01   -.140E-01 0.199E-01 0.654E-02
   0.579E+01 -.128E+02 -.489E+03   -.549E+01 0.131E+02 0.494E+03   -.245E+00 -.275E+00 -.487E+01   -.380E-01 0.385E-01 0.195E-01
   0.390E+00 -.672E+00 0.327E-01   -.888E-14 0.355E-13 0.568E-12   -.419E+00 0.726E+00 -.792E-01   0.257E-01 -.482E-01 0.420E-01

 POSITION                                       TOTAL-FORCE (eV/Angst)
     -5.40531      2.98241     -0.04937         0.010181     -0.019298     -0.034725
      2.62374      1.84574      0.05506         0.001180     -0.000583      0.029740
     -0.14835      0.24571      0.05466        -0.003445      0.000968      0.030332
      2.80174      4.82271      0.00580        -0.021369     -0.009149     -0.004305
      5.46674      6.36142      0.00588         0.007001      0.004145     -0.004404
     -0.03935      3.26889      0.01030         0.005385      0.020882     -0.004782
     -2.59509      4.53653     -0.07046        -0.004343     -0.001712     -0.019397
      5.35783      3.47738      0.06149        -0.000963      0.001990      0.017470
      0.13137      6.11202     -0.07012         0.003793      0.006570     -0.019210
     -0.91962      1.58622     28.42588         0.015443     -0.010147      0.011186
      0.92450      1.58841      1.59532        -0.011171      0.019774      0.032461
     -3.72643      3.18367     28.34595         0.016212     -0.014449     -0.025684
     -1.83676      3.16126      1.64591        -0.005916      0.013324     -0.009713
     -6.47031      4.82842     28.73963        -0.001263     -0.000826      0.023248
     -4.62805      4.80824      1.28250        -0.001490     -0.015248     -0.014214
      1.84875      3.18365     28.42304         0.002524     -0.020198      0.002958
      3.64212      3.19905      1.66683         0.003306      0.010057      0.022660
     -0.89790      4.74647     28.25727        -0.000298      0.004948     -0.011814
      0.94255      4.76832      1.64894        -0.008833      0.016804     -0.000085
     -3.71421      6.41019     28.69023        -0.008762      0.007104      0.007296
     -1.86223      6.41549      1.33127         0.002090     -0.004650     -0.011588
      4.57701      4.82963     28.33340         0.004105     -0.010659      0.011417
      6.45651      4.82474      1.66646        -0.011953      0.002584      0.023223
      1.86791      6.41485     28.34559         0.003189     -0.019982     -0.026401
      3.65368      6.42913      1.62463        -0.005857      0.007744     -0.020841
     -0.93153      8.01751     28.69066        -0.001768      0.013005      0.008588
      0.91233      8.00832      1.28326         0.013021     -0.002998     -0.013417
    total drift:                               -0.003879      0.005056     -0.004497

  FREE ENERGIE OF THE ION-ELECTRON SYSTEM (eV)
  free  energy   TOTEN  =      -192.33622109 eV

  energy  without entropy=     -192.20263176  energy(sigma->0) =     -192.26942642

 d Force = 0.2080143E-03[ 0.151E-03, 0.265E-03]  d Energy = 0.1044000E-03 0.104E-03
 d Force =-0.6398972E-01[-0.644E-01,-0.636E-01]  d Ewald  = 0.9223045E+01-0.929E+01

 Quasi-Newton relaxation of ions (Broydens 2nd method)
  g(Force)  = 0.739E-03   g(Stress)= 0.179E-04

 retain information from N=  2 steps
 eigenvalues of (default step * inverse Hessian matrix)
  average eigenvalue of G=   2.7670
 eigenvalue spectrum of G is  2.0404  3.4936

 reached required accuracy - stopping structural energy minimisation