 vasp.5.4.1 05Feb16 (build Jul 05 2020 17:13:04) complex

 executed on           IFC91_ompi date 2024.08.03  12:05:00

 INCAR:
 POTCAR:   PAW_PBE V 08Apr2002
 POTCAR:   PAW_PBE Mo 08Apr2002
 POTCAR:   PAW_PBE W 08Apr2002
 POTCAR:    PAW_PBE S 17Jan2003

 POTCAR:   PAW_PBE V 08Apr2002
   VRHFIN =V: p6 d4 s1

   TITEL  = PAW_PBE V 08Apr2002
   POMASS =   50.941; ZVAL   =    5.000    mass and valenz
   ENMAX  =  192.543; ENMIN  =  144.408 eV
   QCUT   =   -3.762; QGAM   =    7.524    optimization parameters

   Description
     l     E      TYP  RCUT    TYP  RCUT
     2   .000     23  2.700
     2   .000     23  2.700
     0   .000     23  2.700
     0  2.000     23  2.700
     1   .000     23  2.700
     1  2.000     23  2.700
     3   .000      7   .000

 POTCAR:   PAW_PBE Mo 08Apr2002
   VRHFIN =Mo: 4p5s4d

[...]

 POTCAR:   PAW_PBE W 08Apr2002
   VRHFIN =W : 6s5d

   TITEL  = PAW_PBE W 08Apr2002
   POMASS =  183.850; ZVAL   =    6.000    mass and valenz
   ENMAX  =  223.057; ENMIN  =  167.293 eV
   QCUT   =   -4.049; QGAM   =    8.098    optimization parameters

[...]

 POTCAR:    PAW_PBE S 17Jan2003
   VRHFIN =S : s2p4

   TITEL  = PAW_PBE S 17Jan2003
   POMASS =   32.066; ZVAL   =    6.000    mass and valenz
   ENMAX  =  280.000; ENMIN  =  194.016 eV
   QCUT   =   -4.360; QGAM   =    8.721    optimization parameters

   Description
     l     E      TYP  RCUT    TYP  RCUT
     0   .000     23  1.900
     0   .000     23  1.900
     1   .000     23  1.900
     1   .000     23  1.900
     2   .000     23  1.900

 PAW_PBE V 08Apr2002                    :
 PAW_PBE Mo 08Apr2002                   :
 PAW_PBE W 08Apr2002                    :
  PAW_PBE S 17Jan2003                   :

 POSCAR: crystal structure from VMoWS2 with Hexag
  positions in cartesian coordinates
 exchange correlation table for  LEXCH =        8
   RHO(1)=    0.500       N(1)  =     2000
   RHO(2)=  100.500       N(2)  =     4000

 ion  position               nearest neighbor table
   1  0.667  0.000  0.000-  17 2.34  26 2.34  23 2.36  22 2.36  21 2.36  20 2.36
   2  0.667  0.667  0.000-  21 2.34  24 2.34  27 2.36  26 2.36  19 2.36  18 2.36
   3  0.333  0.667  0.000-  15 2.34  18 2.34  20 2.36  21 2.36  13 2.36  12 2.36
   4  0.000  0.667  0.000-  27 2.34  12 2.34  14 2.36  15 2.36  24 2.36  25 2.36   6 3.34   5 3.34
                             7 3.36   9 3.36
   5  1.000  0.333  0.000-  25 2.34  10 2.34  13 2.36  12 2.36  22 2.36  23 2.36   9 3.34   4 3.34
                             6 3.34   8 3.34
   6  0.000  0.000  0.000-  23 2.34  14 2.34  11 2.36  10 2.36  27 2.36  26 2.36   4 3.34   5 3.34
                             7 3.34   8 3.36
   7  0.333  0.000  0.000-  11 2.34  20 2.34  17 2.36  16 2.36  15 2.36  14 2.36   8 3.34   6 3.34
                             4 3.36   9 3.36
   8  0.333  0.333  0.000-  13 2.34  16 2.34  19 2.36  18 2.36  11 2.36  10 2.36   7 3.34   5 3.34
                             9 3.34   6 3.36
   9  0.667  0.333  0.000-  19 2.34  22 2.34  25 2.36  24 2.36  17 2.36  16 2.36   5 3.34   8 3.34
                             4 3.36   7 3.36
  10  0.111  0.222  0.955-   5 2.34   6 2.36   8 2.36
  11  0.222  0.111  0.045-   7 2.34   6 2.36   8 2.36
  12  0.111  0.556  0.955-   4 2.34   5 2.36   3 2.36
  13  0.222  0.444  0.045-   8 2.34   5 2.36   3 2.36
  14  0.111  0.889  0.955-   6 2.34   4 2.36   7 2.36
  15  0.222  0.777  0.045-   3 2.34   4 2.36   7 2.36
  16  0.444  0.222  0.955-   8 2.34   7 2.36   9 2.36
  17  0.556  0.111  0.045-   1 2.34   7 2.36   9 2.36
  18  0.444  0.556  0.955-   3 2.34   8 2.36   2 2.36
  19  0.556  0.444  0.045-   9 2.34   8 2.36   2 2.36
  20  0.444  0.889  0.955-   7 2.34   3 2.36   1 2.36
  21  0.556  0.777  0.045-   2 2.34   3 2.36   1 2.36
  22  0.777  0.222  0.955-   9 2.34   1 2.36   5 2.36
  23  0.889  0.111  0.045-   6 2.34   1 2.36   5 2.36
  24  0.777  0.556  0.955-   2 2.34   9 2.36   4 2.36
  25  0.889  0.444  0.045-   5 2.34   9 2.36   4 2.36
  26  0.777  0.889  0.955-   1 2.34   2 2.36   6 2.36
  27  0.889  0.777  0.045-   4 2.34   2 2.36   6 2.36

IMPORTANT INFORMATION: All symmetrisations will be switched off!
NOSYMM: (Re-)initialisation of all symmetry stuff for point group C_1.

 KPOINTS: K-POINTS 	#supercell of CrS2 in hexagona

Automatic generation of k-mesh.
Space group operators:
 irot       det(A)        alpha          n_x          n_y          n_z        tau_x        tau_y        tau_z
    1     1.000000     0.000000     1.000000     0.000000     0.000000     0.000000     0.000000     0.000000

 Subroutine IBZKPT returns following result:

 Found     34 irreducible k-points:

 Following reciprocal coordinates:
            Coordinates               Weight
  0.000000  0.000000  0.000000      1.000000
  0.125000  0.000000  0.000000      2.000000
  0.250000  0.000000  0.000000      2.000000
  0.375000  0.000000  0.000000      2.000000
  0.500000  0.000000  0.000000      1.000000
  0.000000  0.125000  0.000000      2.000000
  0.125000  0.125000  0.000000      2.000000
  0.250000  0.125000  0.000000      2.000000
  0.375000  0.125000  0.000000      2.000000
  0.500000  0.125000  0.000000      2.000000
 -0.375000  0.125000  0.000000      2.000000
 -0.250000  0.125000  0.000000      2.000000
 -0.125000  0.125000  0.000000      2.000000
  0.000000  0.250000  0.000000      2.000000
  0.125000  0.250000  0.000000      2.000000
  0.250000  0.250000  0.000000      2.000000
  0.375000  0.250000  0.000000      2.000000
  0.500000  0.250000  0.000000      2.000000
 -0.375000  0.250000  0.000000      2.000000
 -0.250000  0.250000  0.000000      2.000000
 -0.125000  0.250000  0.000000      2.000000
 -0.000000  0.375000  0.000000      2.000000
  0.125000  0.375000  0.000000      2.000000
  0.250000  0.375000  0.000000      2.000000
  0.375000  0.375000  0.000000      2.000000
  0.500000  0.375000  0.000000      2.000000
 -0.375000  0.375000  0.000000      2.000000
 -0.250000  0.375000  0.000000      2.000000
 -0.125000  0.375000  0.000000      2.000000
  0.000000  0.500000  0.000000      1.000000
  0.125000  0.500000  0.000000      2.000000
  0.250000  0.500000  0.000000      2.000000
  0.375000  0.500000  0.000000      2.000000
  0.500000  0.500000  0.000000      1.000000

 Following cartesian coordinates:
            Coordinates               Weight
  0.000000  0.000000  0.000000      1.000000
  0.007209  0.012401  0.000000      2.000000
  0.014418  0.024802  0.000000      2.000000
  0.021626  0.037202  0.000000      2.000000
  0.028835  0.049603  0.000000      1.000000
 -0.007209  0.012401  0.000000      2.000000
  0.000000  0.024802  0.000000      2.000000
  0.007209  0.037202  0.000000      2.000000
  0.014418  0.049603  0.000000      2.000000
  0.021626  0.062004  0.000000      2.000000
 -0.028835 -0.024802  0.000000      2.000000
 -0.021626 -0.012401  0.000000      2.000000
 -0.014418  0.000000  0.000000      2.000000
 -0.014418  0.024802  0.000000      2.000000
 -0.007209  0.037202  0.000000      2.000000
  0.000000  0.049603  0.000000      2.000000
  0.007209  0.062004  0.000000      2.000000
  0.014418  0.074405  0.000000      2.000000
 -0.036044 -0.012401  0.000000      2.000000
 -0.028835  0.000000  0.000000      2.000000
 -0.021626  0.012401  0.000000      2.000000
 -0.021626  0.037202  0.000000      2.000000
 -0.014418  0.049603  0.000000      2.000000
 -0.007209  0.062004  0.000000      2.000000
  0.000000  0.074405  0.000000      2.000000
  0.007209  0.086806  0.000000      2.000000
 -0.043253  0.000000  0.000000      2.000000
 -0.036044  0.012401  0.000000      2.000000
 -0.028835  0.024802  0.000000      2.000000
 -0.028835  0.049603  0.000000      1.000000
 -0.021626  0.062004  0.000000      2.000000
 -0.014418  0.074405  0.000000      2.000000
 -0.007209  0.086806  0.000000      2.000000
  0.000000  0.099206  0.000000      1.000000

 I would recommend the setting:
   dimension x,y,z NGX =    41 NGY =   41 NGZ =  123
 SYSTEM =  unknown system
 POSCAR =  crystal structure from VMoWS2 with Hexag

 Startparameter for this run:
   NWRITE =      2    write-flag & timer
   PREC   = normal    normal or accurate (medium, high low for compatibility)
   ISTART =      0    job   : 0-new  1-cont  2-samecut
   ICHARG =      2    charge: 1-file 2-atom 10-const
   ISPIN  =      1    spin polarized calculation?
   LNONCOLLINEAR =      F non collinear calculations
   LSORBIT =      F    spin-orbit coupling
   INIWAV =      1    electr: 0-lowe 1-rand  2-diag
   LASPH  =      F    aspherical Exc in radial PAW
   METAGGA=      F    non-selfconsistent MetaGGA calc.

 Electronic Relaxation 1
   ENCUT  =  280.0 eV  20.58 Ry    4.54 a.u.  13.68 13.68 40.93*2*pi/ulx,y,z
   ENINI  =  280.0     initial cutoff
   ENAUG  =  373.4 eV  augmentation charge cutoff
   NELM   =     60;   NELMIN=  2; NELMDL= -5     # of ELM steps
   EDIFF  = 0.1E-03   stopping-criterion for ELM
   LREAL  =      F    real-space projection
   NLSPLINE    = F    spline interpolate recip. space projectors
   LCOMPAT=      F    compatible to vasp.4.4
   GGA_COMPAT  = T    GGA compatible to vasp.4.4-vasp.4.6
   LMAXPAW     = -100 max onsite density
   LMAXMIX     =    2 max onsite mixed and CHGCAR
   VOSKOWN=      0    Vosko Wilk Nusair interpolation
   ROPT   =    0.00000   0.00000   0.00000   0.00000
 Ionic relaxation
   EDIFFG = 0.1E-02   stopping-criterion for IOM
   NSW    =    100    number of steps for IOM
   NBLOCK =      1;   KBLOCK =    100    inner block; outer block
   IBRION =      1    ionic relax: 0-MD 1-quasi-New 2-CG
   NFREE  =      0    steps in history (QN), initial steepest desc. (CG)
   ISIF   =      3    stress and relaxation
   IWAVPR =     11    prediction:  0-non 1-charg 2-wave 3-comb
   ISYM   =      0    0-nonsym 1-usesym 2-fastsym
   LCORR  =      T    Harris-Foulkes like correction to forces

   POTIM  = 0.5000    time-step for ionic-motion
   TEIN   =    0.0    initial temperature
   TEBEG  =    0.0;   TEEND  =   0.0 temperature during run
   SMASS  =  -3.00    Nose mass-parameter (am)
   estimated Nose-frequenzy (Omega)   =  0.10E-29 period in steps =****** mass=  -0.230E-26a.u.
   SCALEE = 1.0000    scale energy and forces
   NPACO  =    256;   APACO  = 16.0  distance and # of slots for P.C.
   PSTRESS=    0.0 pullay stress

  Mass of Ions in am
   POMASS =  50.94 95.94183.85 32.07
  Ionic Valenz
   ZVAL   =   5.00  6.00  6.00  6.00
  Atomic Wigner-Seitz radii
  virtual crystal weights
   VCA    =   1.00  1.00  1.00  1.00
   NELECT =     159.0000    total number of electrons
   NUPDOWN=      -1.0000    fix difference up-down

 DOS related values:
   EMIN   =  10.00;   EMAX   =-10.00  energy-range for DOS
   EFERMI =   0.00
   ISMEAR =     0;   SIGMA  =   0.20  broadening in eV -4-tet -1-fermi 0-gaus

 Electronic relaxation 2 (details)
   IALGO  =     38    algorithm
   LDIAG  =      T    sub-space diagonalisation (order eigenvalues)
   LSUBROT=      F    optimize rotation matrix (better conditioning)
   TURBO    =      0    0=normal 1=particle mesh
   IRESTART =      0    0=no restart 2=restart with 2 vectors
   NREBOOT  =      0    no. of reboots
   NMIN     =      0    reboot dimension
   EREF     =   0.00    reference energy to select bands
[...]
     -0.96900      5.03900     28.66200        -0.235975      0.528433     -1.400716
      0.96900      5.03900      1.33800        -0.471968      0.548507      2.128484
     -3.85900      6.71900     28.66200         0.747531      0.003038     -1.444133
     -1.92100      6.71900      1.33800        -0.059135      0.009930      0.764391
      4.81100      5.03900     28.66200         0.352201     -0.684476     -2.187728
      6.74900      5.03900      1.33800        -0.501916     -0.701040      2.137086
      1.92100      6.71900     28.66200        -0.645948     -0.151876     -2.144066
      3.85900      6.71900      1.33800        -0.204394     -0.138741      2.889427
     -0.96900      8.39900     28.66200        -0.327850     -0.676926     -1.426074
      0.96900      8.39900      1.33800        -0.544277     -0.677653      2.132962
    total drift:                                0.000071      0.000131     -0.000023

  FREE ENERGIE OF THE ION-ELECTRON SYSTEM (eV)
  free  energy   TOTEN  =      -186.82616782 eV

  energy  without entropy=     -186.48501072  energy(sigma->0) =     -186.65558927

 Quasi-Newton relaxation of ions (Broydens 2nd method)
  g(Force)  = 0.474E+01   g(Stress)= 0.349E+00

 Reset! Starting new Quasi-Newton update for ions

[...]

 d Force = 0.2406776E+01[ 0.697E-01, 0.474E+01]  d Energy = 0.1829683E+01 0.577E+00
 d Force = 0.9608791E+03[ 0.943E+03, 0.979E+03]  d Ewald  = 0.2511216E+04-0.155E+04

[...]

 retain information from N=  1 steps
 eigenvalues of (default step * inverse Hessian matrix)
  average eigenvalue of G=   0.2400
 eigenvalue spectrum of G is  0.2400

[...]

 d Force = 0.3716109E-01[ 0.367E-01, 0.377E-01]  d Energy = 0.1095639E+01-0.106E+01
 d Force =-0.3077618E+01[-0.315E+01,-0.301E+01]  d Ewald  =-0.1924319E+04 0.192E+04

[...]

 d Force = 0.4965277E+00[ 0.444E+00, 0.549E+00]  d Energy = 0.1021171E+01-0.525E+00
 d Force = 0.4105418E+03[ 0.420E+03, 0.401E+03]  d Ewald  =-0.1527062E+04 0.194E+04

[...]

 d Force = 0.1547994E+00[ 0.130E+00, 0.180E+00]  d Energy = 0.1615695E+00-0.677E-02
 d Force =-0.1306740E+02[-0.126E+02,-0.136E+02]  d Ewald  = 0.1643516E+03-0.177E+03

[...]

 d Force = 0.2755407E-01[ 0.243E-01, 0.308E-01]  d Energy = 0.2752095E-01 0.331E-04
 d Force =-0.9529709E+00[-0.690E+00,-0.122E+01]  d Ewald  =-0.5865553E+02 0.577E+02

[...]

 d Force =-0.1760936E-02[-0.336E-02,-0.164E-03]  d Energy =-0.1783980E-02 0.230E-04
 d Force =-0.2377631E+01[-0.236E+01,-0.239E+01]  d Ewald  =-0.1813007E+02 0.158E+02

[...]

 d Force = 0.8597836E-02[ 0.611E-02, 0.111E-01]  d Energy = 0.8870943E-02-0.273E-03
 d Force = 0.3623868E+01[ 0.383E+01, 0.342E+01]  d Ewald  =-0.2608532E+02 0.297E+02

[...]

 d Force = 0.5869335E-04[-0.113E-03, 0.230E-03]  d Energy = 0.8238106E-04-0.237E-04
 d Force = 0.1126982E+01[ 0.113E+01, 0.113E+01]  d Ewald  = 0.3001060E+02-0.289E+02

[...]

 d Force =-0.1412575E-02[-0.158E-02,-0.125E-02]  d Energy =-0.1302612E-02-0.110E-03
 d Force =-0.1291971E+01[-0.127E+01,-0.131E+01]  d Ewald  =-0.2254467E+02 0.213E+02

[...]

 d Force = 0.1278642E-02[ 0.128E-02, 0.128E-02]  d Energy = 0.1275615E-02 0.303E-05
 d Force = 0.7091778E+00[ 0.718E+00, 0.701E+00]  d Ewald  = 0.7540291E+01-0.683E+01

[...]

 FEWALD executed in parallel

[...]

 eigenvalue-minimisations  : 11320
 total energy-change (2. order) :-0.1292171E-03  (-0.5575918E-04)
 number of electron     158.9999774 magnetization
 augmentation part       -4.2280928 magnetization

[...]

 Broyden mixing:
  rms(total) = 0.45264E-02    rms(broyden)= 0.45232E-02
  rms(prec ) = 0.49624E-02
  weight for this iteration     100.00

 eigenvalues of (default mixing * dielectric matrix)
  average eigenvalue GAMMA=   0.4910
  0.7888  0.1932

[...]

----------------------------------------- Iteration   23(   4)  ---------------------------------------

 eigenvalue-minimisations  :  5920
 total energy-change (2. order) : 0.1324251E-04  (-0.6701229E-05)
 number of electron     158.9999774 magnetization
 augmentation part       -4.2209480 magnetization

 Free energy of the ion-electron system (eV)
  alpha Z        PSCENC =        89.48334042
  Ewald energy   TEWEN  =     44381.29942598
  -Hartree energ DENC   =    -50388.92054181
  -exchange      EXHF   =         0.00000000
  -V(xc)+E(xc)   XCENC  =      -233.53795143
  PAW double counting   =      4098.49954114    -3514.54488647
  entropy T*S    EENTRO =        -0.13398888
  eigenvalues    EBANDS =     -1385.92390865
  atomic energy  EATOM  =      6761.44252427
  Solvation  Ediel_sol  =         0.00000000
  free energy    TOTEN  =      -192.33644544 eV

  energy without entropy =     -192.20245656  energy(sigma->0) =     -192.26945100

 average (electrostatic) potential at core
  the test charge radii are     1.2064  1.2296  1.1823  0.9698
  (the norm of the test charge is              1.0000)
       1 -49.7877       2 -49.7928       3 -49.6991       4 -47.0620       5 -47.0568
       6 -47.1594       7 -49.5990       8 -49.5925       9 -49.6202      10 -95.2416
      11 -95.2273      12 -94.9936      13 -95.1062      14 -95.2384      15 -95.1057
      16 -94.8479      17 -94.6806      18 -94.5613      19 -94.6820      20 -94.5635
      21 -94.4885      22 -95.1250      23 -95.0094      24 -95.1236      25 -95.2906
      26 -94.9589      27 -95.0021

 E-fermi :  -3.2494     XC(G=0):  -2.5618     alpha+bet : -2.3667

[...]

 k-point    34 :       0.5000    0.5000    0.0000
  band No.  band energies     occupation
      1     -17.5057      2.00000
      2     -17.3495      2.00000
      3     -16.7456      2.00000
      4     -16.7174      2.00000
      5     -16.5824      2.00000
      6     -16.5514      2.00000
      7     -16.2783      2.00000
      8     -16.1989      2.00000
      9     -16.1182      2.00000
     10     -16.0829      2.00000
     11     -15.8798      2.00000
     12     -15.8353      2.00000
     13     -15.7704      2.00000
     14     -15.6990      2.00000
     15     -15.6425      2.00000
     16     -15.4313      2.00000
     17     -15.3394      2.00000
     18     -15.2142      2.00000
     19      -9.8136      2.00000
     20      -9.3524      2.00000
     21      -9.3029      2.00000
     22      -9.0074      2.00000
     23      -8.9399      2.00000
     24      -8.8319      2.00000
     25      -8.6786      2.00000
     26      -8.6622      2.00000
     27      -8.4404      2.00000
     28      -8.2927      2.00000
     29      -8.2292      2.00000
     30      -8.1320      2.00000
     31      -8.0832      2.00000
     32      -8.0135      2.00000
     33      -7.9235      2.00000
     34      -7.8474      2.00000
     35      -7.7464      2.00000
     36      -7.6822      2.00000
     37      -7.6435      2.00000
     38      -7.5974      2.00000
     39      -7.4683      2.00000
     40      -7.3376      2.00000
     41      -7.0934      2.00000
     42      -7.0736      2.00000
     43      -7.0029      2.00000
     44      -6.8538      2.00000
     45      -6.8260      2.00000
     46      -6.7138      2.00000
     47      -6.6518      2.00000
     48      -6.5904      2.00000
     49      -6.5220      2.00000
     50      -6.4615      2.00000
     51      -6.4138      2.00000
     52      -6.3468      2.00000
     53      -6.2718      2.00000
     54      -6.1846      2.00000
     55      -6.1133      2.00000
     56      -6.0980      2.00000
     57      -6.0114      2.00000
     58      -5.8467      2.00000
     59      -5.8163      2.00000
     60      -5.7932      2.00000
[...]
    106      -0.4084      0.00000
    107      -0.2987      0.00000
    108      -0.1208      0.00000
    109       0.0190      0.00000
    110       0.1962      0.00000
    111       0.2739      0.00000
    112       0.5847      0.00000
    113       0.7703      0.00000
    114       1.0441      0.00000
    115       1.1399      0.00000
    116       1.3252      0.00000
    117       1.5693      0.00000
    118       2.2520      0.00000
    119       2.2659      0.00000
    120       2.4061      0.00000

 soft charge-density along one line, spin component           1
         0         1         2         3         4         5         6         7         8         9
 total charge-density along one line

------------------------ aborting loop because EDIFF is reached ----------------------------------------

  FORCE on cell =-STRESS in cart. coord.  units (eV):
  Direction    XX          YY          ZZ          XY          YZ          ZX
  Alpha Z    89.48334    89.48334    89.48334
  Ewald   49344.02195 49298.01805-54260.75760   -39.41415    21.23497    12.04851
  Hartree 50049.86967 50020.65217-49681.38267   -25.11483    11.89578     6.82627
  E(xc)    -609.56685  -610.62170  -617.84983    -0.91534    -0.95008    -0.54311
  Local  ************************101379.70769    57.65342   -41.31286   -23.57341
  n-local  1213.59619  1215.48933  1248.84676     1.65846    -2.29827    -1.37915
  augment  -213.27409  -212.77101  -214.57699     0.45151     0.98889     0.57245
  Kinetic  2008.22368  2014.76855  2054.72101     5.63900    10.22233     5.92332
  Fock        0.00000     0.00000     0.00000     0.00000     0.00000     0.00000
  Total      -0.03864    -0.06458    -1.80829    -0.04193    -0.21924    -0.12512
  in kB      -0.02588    -0.04325    -1.21097    -0.02808    -0.14682    -0.08379

 VOLUME and BASIS-vectors are now :
  energy-cutoff  :      280.00
  volume of cell :     2392.46
      direct lattice vectors                 reciprocal lattice vectors
     8.309507197  4.823400526  0.000000000     0.060017526  0.103927495  0.000000000
    -8.288086506  4.786321958  0.000000000    -0.060482469  0.104196097  0.000000000
     0.000000000  0.000000000 30.000000000     0.000000000  0.000000000  0.033333333

  length of vectors
     9.607970779  9.570854497 30.000000000     0.120012614  0.120478030  0.033333333

 FORCES acting on ions
    electron-ion (+dipol)            ewald-force                    non-local-force                 convergence-correction
   0.114E+02 0.216E+02 0.151E+02   -.119E+02 -.231E+02 -.149E+02   0.499E+00 0.148E+01 -.235E+00   -.210E-01 -.315E-02 -.231E-01
   0.128E+02 0.205E+02 0.151E+02   -.138E+02 -.216E+02 -.148E+02   0.103E+01 0.118E+01 -.238E+00   0.191E-01 -.187E-01 -.222E-01
   -.132E+02 -.229E+02 -.128E+02   0.139E+02 0.243E+02 0.126E+02   -.761E+00 -.132E+01 0.283E+00   -.173E-01 -.243E-01 0.241E-01
   0.605E+01 -.422E+01 0.204E+01   -.587E+01 0.406E+01 -.207E+01   -.225E+00 0.157E+00 0.230E-01   0.302E-01 0.463E-02 0.777E-03
   -.596E+01 0.269E+01 0.200E+01   0.575E+01 -.263E+01 -.202E+01   0.249E+00 -.112E+00 0.233E-01   -.184E-01 0.398E-01 0.122E-02
   0.577E+01 0.117E+02 0.344E+01   -.571E+01 -.115E+02 -.343E+01   -.104E+00 -.180E+00 -.109E-01   0.267E-01 0.268E-01 0.336E-02
   -.184E+02 -.270E+02 -.231E+02   0.190E+02 0.277E+02 0.229E+02   -.580E+00 -.710E+00 0.221E+00   0.182E-01 -.596E-02 0.105E-01
   -.144E+02 -.298E+02 -.230E+02   0.147E+02 0.306E+02 0.227E+02   -.321E+00 -.840E+00 0.217E+00   -.442E-02 0.227E-01 0.112E-01
   0.173E+02 0.298E+02 0.192E+02   -.177E+02 -.305E+02 -.190E+02   0.383E+00 0.656E+00 -.163E+00   -.647E-02 0.123E-01 -.527E-02
   -.292E+01 -.964E+01 0.613E+03   0.385E+01 0.106E+02 -.617E+03   -.904E+00 -.101E+01 0.351E+01   -.117E-01 0.360E-01 -.152E-01
   -.111E+02 -.187E+02 -.633E+03   0.113E+02 0.190E+02 0.637E+03   -.209E+00 -.358E+00 -.404E+01   0.187E-01 0.256E-01 0.504E-02
   -.852E+01 -.149E+02 0.607E+03   0.920E+01 0.161E+02 -.610E+03   -.671E+00 -.121E+01 0.320E+01   -.935E-02 0.768E-02 0.201E-01
   -.107E+02 -.214E+02 -.606E+03   0.110E+02 0.221E+02 0.609E+03   -.272E+00 -.828E+00 -.366E+01   -.728E-02 0.160E-01 -.227E-01
   -.676E+01 -.694E+01 0.612E+03   0.719E+01 0.826E+01 -.615E+03   -.465E+00 -.130E+01 0.352E+01   0.435E-01 -.550E-02 -.568E-02
   -.129E+02 -.200E+02 -.606E+03   0.134E+02 0.207E+02 0.609E+03   -.577E+00 -.643E+00 -.366E+01   0.825E-02 -.746E-02 -.307E-01
   -.631E+01 -.107E+02 0.505E+03   0.613E+01 0.104E+02 -.510E+03   0.180E+00 0.299E+00 0.524E+01   -.297E-02 -.196E-02 0.486E-02
   0.146E+01 0.944E+01 -.496E+03   -.962E+00 -.903E+01 0.501E+03   -.452E+00 -.390E+00 -.506E+01   -.363E-01 -.141E-01 0.139E-01
   -.576E+01 -.128E+02 0.488E+03   0.552E+01 0.131E+02 -.493E+03   0.243E+00 -.266E+00 0.487E+01   -.117E-01 -.255E-01 -.158E-02
   0.741E+01 0.572E+01 -.496E+03   -.730E+01 -.509E+01 0.501E+03   -.118E+00 -.585E+00 -.506E+01   0.280E-02 -.245E-01 0.723E-02
   -.803E+01 -.112E+02 0.488E+03   0.841E+01 0.111E+02 -.493E+03   -.358E+00 0.857E-01 0.487E+01   -.215E-01 -.358E-01 -.695E-02
   0.373E+01 0.656E+01 -.480E+03   -.360E+01 -.631E+01 0.485E+03   -.112E+00 -.202E+00 -.457E+01   -.156E-01 -.468E-01 0.274E-01
   0.715E+01 0.239E+02 0.610E+03   -.744E+01 -.247E+02 -.614E+03   0.328E+00 0.758E+00 0.364E+01   -.257E-01 0.218E-01 -.121E-01
   0.536E+01 0.147E+02 -.590E+03   -.618E+01 -.165E+02 0.593E+03   0.835E+00 0.168E+01 -.311E+01   -.147E-01 0.343E-01 0.454E-01
   0.174E+02 0.179E+02 0.610E+03   -.179E+02 -.186E+02 -.613E+03   0.490E+00 0.660E+00 0.365E+01   0.242E-01 0.134E-02 0.566E-02
   0.750E+01 0.128E+02 -.621E+03   -.818E+01 -.140E+02 0.624E+03   0.683E+00 0.113E+01 -.348E+01   -.251E-02 0.238E-01 -.104E-01
   0.114E+02 0.204E+02 0.586E+03   -.120E+02 -.213E+02 -.589E+03   0.590E+00 0.102E+01 0.323E+01   0.313E-02 -.222E-01 -.415E-01
   0.979E+01 0.116E+02 -.589E+03   -.109E+02 -.132E+02 0.592E+03   0.103E+01 0.159E+01 -.311E+01   0.474E-01 -.612E-02 0.273E-01
   -.436E+00 -.763E+00 -.113E+00   0.249E-13 0.320E-13 -.341E-12   0.421E+00 0.734E+00 0.106E+00   0.154E-01 0.308E-01 0.107E-01

 POSITION                                       TOTAL-FORCE (eV/Angst)
      5.67807      3.46796     -0.05537        -0.000460     -0.002603     -0.034640
      0.16345      6.65288     -0.05476        -0.000588      0.001805     -0.033050
     -2.88953      4.56513      0.04990        -0.004630     -0.008927      0.033476
     -5.47437      3.15960     -0.00612        -0.011352     -0.001811      0.002333
      5.50058      6.44348     -0.00608         0.022652     -0.019939      0.003710
      0.03103      0.06659     -0.00997        -0.010780      0.022582      0.001930
      2.58911      1.33373      0.07100         0.001188     -0.001353      0.015582
     -0.13909      2.91051      0.07055        -0.001820      0.004383      0.015497
      2.94383      5.09827     -0.06204         0.001653      0.000742     -0.010758
     -0.94967      1.56618     28.35106         0.010474      0.021495      0.002497
      0.89125      1.54480      1.74228        -0.001150      0.003441      0.015370
     -3.66168      3.22697     28.37474         0.007151      0.008950      0.027454
     -1.87537      3.21301      1.65501        -0.003147     -0.022839      0.023913
     -6.45835      4.74497     28.35476         0.007519      0.015833      0.014383
     -4.56813      4.76726      1.65475        -0.018148     -0.016454      0.024094
      1.85540      3.21326     28.66994        -0.001152     -0.003127      0.009233
      3.70820      3.20876      1.30920         0.011777      0.006902     -0.007728
     -0.91979      4.80723     28.71800        -0.010542     -0.004234      0.009121
      0.92499      4.81642      1.30874         0.001478      0.014227     -0.009338
     -3.66575      6.39256     28.71888        -0.000024     -0.011900      0.011630
     -1.82379      6.41261      1.25795         0.002453      0.004429     -0.014836
      4.65925      4.82030     28.33284         0.003155      0.006112     -0.023733
      6.45311      4.80487      1.57697        -0.003039     -0.022398     -0.001296
      1.84519      6.44582     28.33333         0.007669      0.005493     -0.021716
      3.72455      6.45089      1.66583        -0.004499     -0.012445     -0.009744
     -0.91061      7.99540     28.40484         0.010472      0.022076     -0.030897
      0.93464      7.99344      1.57379        -0.016310     -0.010439     -0.012484
    total drift:                                0.000345      0.002167      0.004135

  FREE ENERGIE OF THE ION-ELECTRON SYSTEM (eV)
  free  energy   TOTEN  =      -192.33644544 eV

  energy  without entropy=     -192.20245656  energy(sigma->0) =     -192.26945100

 d Force = 0.3606596E-03[ 0.345E-03, 0.376E-03]  d Energy = 0.2016460E-03 0.159E-03
 d Force =-0.1017543E+00[-0.101E+00,-0.102E+00]  d Ewald  = 0.5477454E+00-0.649E+00

 Quasi-Newton relaxation of ions (Broydens 2nd method)
  g(Force)  = 0.760E-03   g(Stress)= 0.164E-04

 retain information from N=  2 steps
 eigenvalues of (default step * inverse Hessian matrix)
  average eigenvalue of G=   0.4051
 eigenvalue spectrum of G is  0.4945  0.3156

 reached required accuracy - stopping structural energy minimisation