 vasp.5.4.1 05Feb16 (build Jul 05 2020 17:13:04) complex

 executed on           IFC91_ompi date 2024.08.02  04:45:50

 INCAR:
 POTCAR:   PAW_PBE V 08Apr2002
 POTCAR:   PAW_PBE Mo 08Apr2002
 POTCAR:   PAW_PBE W 08Apr2002
 POTCAR:    PAW_PBE S 17Jan2003

 POTCAR:   PAW_PBE V 08Apr2002
   VRHFIN =V: p6 d4 s1

   TITEL  = PAW_PBE V 08Apr2002
   POMASS =   50.941; ZVAL   =    5.000    mass and valenz
   ENMAX  =  192.543; ENMIN  =  144.408 eV
   QCUT   =   -3.762; QGAM   =    7.524    optimization parameters

   Description
     l     E      TYP  RCUT    TYP  RCUT
     2   .000     23  2.700
     2   .000     23  2.700
     0   .000     23  2.700
     0  2.000     23  2.700
     1   .000     23  2.700
     1  2.000     23  2.700
     3   .000      7   .000

 POTCAR:   PAW_PBE Mo 08Apr2002
   VRHFIN =Mo: 4p5s4d

[...]

 POTCAR:   PAW_PBE W 08Apr2002
   VRHFIN =W : 6s5d

   TITEL  = PAW_PBE W 08Apr2002
   POMASS =  183.850; ZVAL   =    6.000    mass and valenz
   ENMAX  =  223.057; ENMIN  =  167.293 eV
   QCUT   =   -4.049; QGAM   =    8.098    optimization parameters

[...]

 POTCAR:    PAW_PBE S 17Jan2003
   VRHFIN =S : s2p4

   TITEL  = PAW_PBE S 17Jan2003
   POMASS =   32.066; ZVAL   =    6.000    mass and valenz
   ENMAX  =  280.000; ENMIN  =  194.016 eV
   QCUT   =   -4.360; QGAM   =    8.721    optimization parameters

   Description
     l     E      TYP  RCUT    TYP  RCUT
     0   .000     23  1.900
     0   .000     23  1.900
     1   .000     23  1.900
     1   .000     23  1.900
     2   .000     23  1.900

 PAW_PBE V 08Apr2002                    :
 PAW_PBE Mo 08Apr2002                   :
 PAW_PBE W 08Apr2002                    :
  PAW_PBE S 17Jan2003                   :

 POSCAR: crystal structure from VMoWS2 with Hexag
  positions in cartesian coordinates
 exchange correlation table for  LEXCH =        8
   RHO(1)=    0.500       N(1)  =     2000
   RHO(2)=  100.500       N(2)  =     4000

 ion  position               nearest neighbor table
   1  0.333  0.333  0.000-  13 2.34  16 2.34  19 2.36  18 2.36  11 2.36  10 2.36
   2  0.333  0.000  0.000-  11 2.34  20 2.34  17 2.36  16 2.36  15 2.36  14 2.36
   3  0.667  0.333  0.000-  19 2.34  22 2.34  25 2.36  24 2.36  17 2.36  16 2.36
   4  0.000  0.000  0.000-  23 2.34  14 2.34  11 2.36  10 2.36  27 2.36  26 2.36   6 3.34   8 3.34
                             7 3.34   5 3.36
   5  0.667  0.667  0.000-  21 2.34  24 2.34  27 2.36  26 2.36  19 2.36  18 2.36   8 3.34   6 3.34
                             9 3.34   4 3.36
   6  0.667  0.000  0.000-  17 2.34  26 2.34  23 2.36  22 2.36  21 2.36  20 2.36   4 3.34   5 3.34
                             7 3.36   9 3.36
   7  1.000  0.333  0.000-  25 2.34  10 2.34  13 2.36  12 2.36  22 2.36  23 2.36   8 3.34   4 3.34
                             6 3.36   9 3.36
   8  0.000  0.667  0.000-  27 2.34  12 2.34  14 2.36  15 2.36  24 2.36  25 2.36   5 3.34   4 3.34
                             7 3.34   9 3.34
   9  0.333  0.667  0.000-  15 2.34  18 2.34  20 2.36  21 2.36  13 2.36  12 2.36   8 3.34   5 3.34
                             6 3.36   7 3.36
  10  0.111  0.222  0.955-   7 2.34   4 2.36   1 2.36
  11  0.222  0.111  0.045-   2 2.34   4 2.36   1 2.36
  12  0.111  0.556  0.955-   8 2.34   7 2.36   9 2.36
  13  0.222  0.444  0.045-   1 2.34   7 2.36   9 2.36
  14  0.111  0.889  0.955-   4 2.34   8 2.36   2 2.36
  15  0.222  0.777  0.045-   9 2.34   8 2.36   2 2.36
  16  0.444  0.222  0.955-   1 2.34   2 2.36   3 2.36
  17  0.556  0.111  0.045-   6 2.34   2 2.36   3 2.36
  18  0.444  0.556  0.955-   9 2.34   1 2.36   5 2.36
  19  0.556  0.444  0.045-   3 2.34   1 2.36   5 2.36
  20  0.444  0.889  0.955-   2 2.34   9 2.36   6 2.36
  21  0.556  0.777  0.045-   5 2.34   9 2.36   6 2.36
  22  0.777  0.222  0.955-   3 2.34   6 2.36   7 2.36
  23  0.889  0.111  0.045-   4 2.34   6 2.36   7 2.36
  24  0.777  0.556  0.955-   5 2.34   3 2.36   8 2.36
  25  0.889  0.444  0.045-   7 2.34   3 2.36   8 2.36
  26  0.777  0.889  0.955-   6 2.34   5 2.36   4 2.36
  27  0.889  0.777  0.045-   8 2.34   5 2.36   4 2.36

IMPORTANT INFORMATION: All symmetrisations will be switched off!
NOSYMM: (Re-)initialisation of all symmetry stuff for point group C_1.

 KPOINTS: K-POINTS 	#supercell of CrS2 in hexagona

Automatic generation of k-mesh.
Space group operators:
 irot       det(A)        alpha          n_x          n_y          n_z        tau_x        tau_y        tau_z
    1     1.000000     0.000000     1.000000     0.000000     0.000000     0.000000     0.000000     0.000000

 Subroutine IBZKPT returns following result:

 Found     34 irreducible k-points:

 Following reciprocal coordinates:
            Coordinates               Weight
  0.000000  0.000000  0.000000      1.000000
  0.125000  0.000000  0.000000      2.000000
  0.250000  0.000000  0.000000      2.000000
  0.375000  0.000000  0.000000      2.000000
  0.500000  0.000000  0.000000      1.000000
  0.000000  0.125000  0.000000      2.000000
  0.125000  0.125000  0.000000      2.000000
  0.250000  0.125000  0.000000      2.000000
  0.375000  0.125000  0.000000      2.000000
  0.500000  0.125000  0.000000      2.000000
 -0.375000  0.125000  0.000000      2.000000
 -0.250000  0.125000  0.000000      2.000000
 -0.125000  0.125000  0.000000      2.000000
  0.000000  0.250000  0.000000      2.000000
  0.125000  0.250000  0.000000      2.000000
  0.250000  0.250000  0.000000      2.000000
  0.375000  0.250000  0.000000      2.000000
  0.500000  0.250000  0.000000      2.000000
 -0.375000  0.250000  0.000000      2.000000
 -0.250000  0.250000  0.000000      2.000000
 -0.125000  0.250000  0.000000      2.000000
 -0.000000  0.375000  0.000000      2.000000
  0.125000  0.375000  0.000000      2.000000
  0.250000  0.375000  0.000000      2.000000
  0.375000  0.375000  0.000000      2.000000
  0.500000  0.375000  0.000000      2.000000
 -0.375000  0.375000  0.000000      2.000000
 -0.250000  0.375000  0.000000      2.000000
 -0.125000  0.375000  0.000000      2.000000
  0.000000  0.500000  0.000000      1.000000
  0.125000  0.500000  0.000000      2.000000
  0.250000  0.500000  0.000000      2.000000
  0.375000  0.500000  0.000000      2.000000
  0.500000  0.500000  0.000000      1.000000

 Following cartesian coordinates:
            Coordinates               Weight
  0.000000  0.000000  0.000000      1.000000
  0.007209  0.012401  0.000000      2.000000
  0.014418  0.024802  0.000000      2.000000
  0.021626  0.037202  0.000000      2.000000
  0.028835  0.049603  0.000000      1.000000
 -0.007209  0.012401  0.000000      2.000000
  0.000000  0.024802  0.000000      2.000000
  0.007209  0.037202  0.000000      2.000000
  0.014418  0.049603  0.000000      2.000000
  0.021626  0.062004  0.000000      2.000000
 -0.028835 -0.024802  0.000000      2.000000
 -0.021626 -0.012401  0.000000      2.000000
 -0.014418  0.000000  0.000000      2.000000
 -0.014418  0.024802  0.000000      2.000000
 -0.007209  0.037202  0.000000      2.000000
  0.000000  0.049603  0.000000      2.000000
  0.007209  0.062004  0.000000      2.000000
  0.014418  0.074405  0.000000      2.000000
 -0.036044 -0.012401  0.000000      2.000000
 -0.028835  0.000000  0.000000      2.000000
 -0.021626  0.012401  0.000000      2.000000
 -0.021626  0.037202  0.000000      2.000000
 -0.014418  0.049603  0.000000      2.000000
 -0.007209  0.062004  0.000000      2.000000
  0.000000  0.074405  0.000000      2.000000
  0.007209  0.086806  0.000000      2.000000
 -0.043253  0.000000  0.000000      2.000000
 -0.036044  0.012401  0.000000      2.000000
 -0.028835  0.024802  0.000000      2.000000
 -0.028835  0.049603  0.000000      1.000000
 -0.021626  0.062004  0.000000      2.000000
 -0.014418  0.074405  0.000000      2.000000
 -0.007209  0.086806  0.000000      2.000000
  0.000000  0.099206  0.000000      1.000000

 I would recommend the setting:
   dimension x,y,z NGX =    41 NGY =   41 NGZ =  123
 SYSTEM =  unknown system
 POSCAR =  crystal structure from VMoWS2 with Hexag

 Startparameter for this run:
   NWRITE =      2    write-flag & timer
   PREC   = normal    normal or accurate (medium, high low for compatibility)
   ISTART =      0    job   : 0-new  1-cont  2-samecut
   ICHARG =      2    charge: 1-file 2-atom 10-const
   ISPIN  =      1    spin polarized calculation?
   LNONCOLLINEAR =      F non collinear calculations
   LSORBIT =      F    spin-orbit coupling
   INIWAV =      1    electr: 0-lowe 1-rand  2-diag
   LASPH  =      F    aspherical Exc in radial PAW
   METAGGA=      F    non-selfconsistent MetaGGA calc.

 Electronic Relaxation 1
   ENCUT  =  280.0 eV  20.58 Ry    4.54 a.u.  13.68 13.68 40.93*2*pi/ulx,y,z
   ENINI  =  280.0     initial cutoff
   ENAUG  =  373.4 eV  augmentation charge cutoff
   NELM   =     60;   NELMIN=  2; NELMDL= -5     # of ELM steps
   EDIFF  = 0.1E-03   stopping-criterion for ELM
   LREAL  =      F    real-space projection
   NLSPLINE    = F    spline interpolate recip. space projectors
   LCOMPAT=      F    compatible to vasp.4.4
   GGA_COMPAT  = T    GGA compatible to vasp.4.4-vasp.4.6
   LMAXPAW     = -100 max onsite density
   LMAXMIX     =    2 max onsite mixed and CHGCAR
   VOSKOWN=      0    Vosko Wilk Nusair interpolation
   ROPT   =    0.00000   0.00000   0.00000   0.00000
 Ionic relaxation
   EDIFFG = 0.1E-02   stopping-criterion for IOM
   NSW    =    100    number of steps for IOM
   NBLOCK =      1;   KBLOCK =    100    inner block; outer block
   IBRION =      1    ionic relax: 0-MD 1-quasi-New 2-CG
   NFREE  =      0    steps in history (QN), initial steepest desc. (CG)
   ISIF   =      3    stress and relaxation
   IWAVPR =     11    prediction:  0-non 1-charg 2-wave 3-comb
   ISYM   =      0    0-nonsym 1-usesym 2-fastsym
   LCORR  =      T    Harris-Foulkes like correction to forces

   POTIM  = 0.5000    time-step for ionic-motion
   TEIN   =    0.0    initial temperature
   TEBEG  =    0.0;   TEEND  =   0.0 temperature during run
   SMASS  =  -3.00    Nose mass-parameter (am)
   estimated Nose-frequenzy (Omega)   =  0.10E-29 period in steps =****** mass=  -0.230E-26a.u.
   SCALEE = 1.0000    scale energy and forces
   NPACO  =    256;   APACO  = 16.0  distance and # of slots for P.C.
   PSTRESS=    0.0 pullay stress

  Mass of Ions in am
   POMASS =  50.94 95.94183.85 32.07
  Ionic Valenz
   ZVAL   =   5.00  6.00  6.00  6.00
  Atomic Wigner-Seitz radii
  virtual crystal weights
   VCA    =   1.00  1.00  1.00  1.00
   NELECT =     159.0000    total number of electrons
   NUPDOWN=      -1.0000    fix difference up-down

 DOS related values:
   EMIN   =  10.00;   EMAX   =-10.00  energy-range for DOS
   EFERMI =   0.00
   ISMEAR =     0;   SIGMA  =   0.20  broadening in eV -4-tet -1-fermi 0-gaus

 Electronic relaxation 2 (details)
   IALGO  =     38    algorithm
   LDIAG  =      T    sub-space diagonalisation (order eigenvalues)
   LSUBROT=      F    optimize rotation matrix (better conditioning)
   TURBO    =      0    0=normal 1=particle mesh
   IRESTART =      0    0=no restart 2=restart with 2 vectors
   NREBOOT  =      0    no. of reboots
   NMIN     =      0    reboot dimension
   EREF     =   0.00    reference energy to select bands
[...]
      1.92100      3.35900     28.66200         0.063896     -0.002286     -0.792467
      3.85900      3.35900      1.33800        -0.909465     -0.002236      1.415639
     -0.96900      5.03900     28.66200         0.379693     -0.691396     -2.157924
      0.96900      5.03900      1.33800         0.326565     -0.676495      1.375695
     -3.85900      6.71900     28.66200        -0.662994     -0.134056     -2.112069
     -1.92100      6.71900      1.33800        -0.227462     -0.180229      2.903055
      4.81100      5.03900     28.66200        -0.663783      0.138951     -2.112871
      6.74900      5.03900      1.33800        -0.227234      0.185128      2.902945
      1.92100      6.71900     28.66200         0.604285     -0.556846     -2.154459
      3.85900      6.71900      1.33800        -0.447270     -0.542938      2.166156
     -0.96900      8.39900     28.66200         0.113409      0.001495     -2.959535
      0.96900      8.39900      1.33800         0.079012      0.002558      2.908597
    total drift:                               -0.000831     -0.000241     -0.001260

  FREE ENERGIE OF THE ION-ELECTRON SYSTEM (eV)
  free  energy   TOTEN  =      -186.81242436 eV

  energy  without entropy=     -186.46796362  energy(sigma->0) =     -186.64019399

 Quasi-Newton relaxation of ions (Broydens 2nd method)
  g(Force)  = 0.476E+01   g(Stress)= 0.364E+00

 Reset! Starting new Quasi-Newton update for ions

[...]

 d Force = 0.2428523E+01[ 0.935E-01, 0.476E+01]  d Energy = 0.1848609E+01 0.580E+00
 d Force = 0.9590044E+03[ 0.941E+03, 0.977E+03]  d Ewald  = 0.2538812E+04-0.158E+04

[...]

 retain information from N=  1 steps
 eigenvalues of (default step * inverse Hessian matrix)
  average eigenvalue of G=   0.2444
 eigenvalue spectrum of G is  0.2444

[...]

 d Force = 0.5075374E-01[ 0.494E-01, 0.521E-01]  d Energy = 0.1121265E+01-0.107E+01
 d Force =-0.4200021E+01[-0.430E+01,-0.410E+01]  d Ewald  =-0.1936524E+04 0.193E+04

[...]

 d Force = 0.5331570E+00[ 0.473E+00, 0.593E+00]  d Energy = 0.1056252E+01-0.523E+00
 d Force = 0.4103477E+03[ 0.420E+03, 0.401E+03]  d Ewald  =-0.1535986E+04 0.195E+04

[...]

 d Force = 0.1245765E+00[ 0.124E+00, 0.125E+00]  d Energy = 0.1274652E+00-0.289E-02
 d Force =-0.2935999E+02[-0.294E+02,-0.293E+02]  d Ewald  = 0.1600999E+03-0.189E+03

[...]

 d Force = 0.8257188E-01[ 0.803E-01, 0.849E-01]  d Energy = 0.8280394E-01-0.232E-03
 d Force = 0.2152521E+02[ 0.215E+02, 0.215E+02]  d Ewald  =-0.9796004E+01 0.313E+02

[...]

 d Force =-0.6672189E-01[-0.153E+00, 0.195E-01]  d Energy =-0.7119020E-01 0.447E-02
 d Force =-0.2010593E+02[-0.204E+02,-0.199E+02]  d Ewald  =-0.8937181E+02 0.693E+02

[...]

 d Force = 0.1353576E-01[-0.386E-02, 0.309E-01]  d Energy = 0.1561772E-01-0.208E-02
 d Force =-0.6360194E+02[-0.632E+02,-0.640E+02]  d Ewald  = 0.8831423E+02-0.152E+03

[...]

 d Force =-0.3465411E-03[-0.249E-02, 0.179E-02]  d Energy =-0.2963549E-03-0.502E-04
 d Force = 0.1585429E+02[ 0.159E+02, 0.158E+02]  d Ewald  = 0.4363373E+02-0.278E+02

[...]

 d Force = 0.1168468E-02[ 0.868E-03, 0.147E-02]  d Energy = 0.1235257E-02-0.668E-04
 d Force =-0.1364489E+02[-0.136E+02,-0.136E+02]  d Ewald  =-0.1149758E+01-0.125E+02

[...]

 FEWALD executed in parallel

[...]

 eigenvalue-minimisations  :  8440
 total energy-change (2. order) : 0.1697354E-03  (-0.4969476E-04)
 number of electron     158.9999646 magnetization
 augmentation part       -4.2207127 magnetization

 Broyden mixing:
  rms(total) = 0.63678E-02    rms(broyden)= 0.63602E-02
  rms(prec ) = 0.69631E-02
  weight for this iteration     100.00

 eigenvalues of (default mixing * dielectric matrix)
  average eigenvalue GAMMA=   0.5117
  0.8933  0.1301

[...]

----------------------------------------- Iteration   15(   4)  ---------------------------------------

 eigenvalue-minimisations  :  6800
 total energy-change (2. order) :-0.1542343E-04  (-0.1926499E-04)
 number of electron     158.9999646 magnetization
 augmentation part       -4.2207127 magnetization

 Free energy of the ion-electron system (eV)
  alpha Z        PSCENC =        88.20731621
  Ewald energy   TEWEN  =     43813.54664962
  -Hartree energ DENC   =    -49819.41279641
  -exchange      EXHF   =         0.00000000
  -V(xc)+E(xc)   XCENC  =      -233.81423091
  PAW double counting   =      4093.18554296    -3509.29592939
  entropy T*S    EENTRO =        -0.21253450
  eigenvalues    EBANDS =     -1385.85788060
  atomic energy  EATOM  =      6761.44252427
  Solvation  Ediel_sol  =         0.00000000
  free energy    TOTEN  =      -192.21133875 eV

  energy without entropy =     -191.99880425  energy(sigma->0) =     -192.10507150

 average (electrostatic) potential at core
  the test charge radii are     1.2064  1.2296  1.1823  0.9698
  (the norm of the test charge is              1.0000)
       1 -49.9465       2 -49.9528       3 -49.9512       4 -46.9457       5 -46.9464
       6 -46.9459       7 -49.5858       8 -49.5823       9 -49.5852      10 -95.0609
      11 -94.8040      12 -94.5148      13 -94.8770      14 -95.0583      15 -94.8821
      16 -94.7532      17 -94.7865      18 -95.0618      19 -94.8089      20 -95.0561
      21 -95.1975      22 -95.0567      23 -95.1967      24 -95.0597      25 -94.8811
      26 -95.0894      27 -95.1997

 E-fermi :  -3.1261     XC(G=0):  -2.5374     alpha+bet : -2.3329

[...]

 k-point    34 :       0.5000    0.5000    0.0000
  band No.  band energies     occupation
      1     -17.4306      2.00000
      2     -17.3376      2.00000
      3     -16.7291      2.00000
      4     -16.6930      2.00000
      5     -16.5212      2.00000
      6     -16.3493      2.00000
      7     -16.2444      2.00000
      8     -16.1983      2.00000
      9     -16.0333      2.00000
     10     -16.0066      2.00000
     11     -15.9171      2.00000
     12     -15.9052      2.00000
     13     -15.7808      2.00000
     14     -15.7286      2.00000
     15     -15.6023      2.00000
     16     -15.5915      2.00000
     17     -15.5114      2.00000
     18     -15.4828      2.00000
     19      -9.7604      2.00000
     20      -9.2848      2.00000
     21      -9.1408      2.00000
     22      -9.0449      2.00000
     23      -8.8975      2.00000
     24      -8.7767      2.00000
     25      -8.5561      2.00000
     26      -8.5333      2.00000
     27      -8.4016      2.00000
     28      -8.3165      2.00000
     29      -8.2804      2.00000
     30      -8.1796      2.00000
     31      -8.0919      2.00000
     32      -8.0171      2.00000
     33      -7.8891      2.00000
     34      -7.8668      2.00000
     35      -7.7528      2.00000
     36      -7.6203      2.00000
     37      -7.4805      2.00000
     38      -7.4331      2.00000
     39      -7.4295      2.00000
     40      -7.1972      2.00000
     41      -7.1319      2.00000
     42      -7.0845      2.00000
     43      -6.9875      2.00000
     44      -6.9327      2.00000
     45      -6.7634      2.00000
     46      -6.7203      2.00000
     47      -6.6995      2.00000
     48      -6.6254      2.00000
     49      -6.5243      2.00000
     50      -6.4240      2.00000
     51      -6.3863      2.00000
     52      -6.3634      2.00000
     53      -6.3391      2.00000
     54      -6.2688      2.00000
     55      -6.1771      2.00000
     56      -6.0370      2.00000
     57      -6.0323      2.00000
     58      -6.0173      2.00000
     59      -5.9466      2.00000
     60      -5.8769      2.00000
[...]
    106      -0.5122      0.00000
    107      -0.2526      0.00000
    108      -0.2013      0.00000
    109      -0.0909      0.00000
    110       0.2826      0.00000
    111       0.4195      0.00000
    112       0.6586      0.00000
    113       0.9190      0.00000
    114       0.9902      0.00000
    115       1.0800      0.00000
    116       1.2074      0.00000
    117       1.3947      0.00000
    118       2.2095      0.00000
    119       2.2414      0.00000
    120       2.3581      0.00000

 soft charge-density along one line, spin component           1
         0         1         2         3         4         5         6         7         8         9
 total charge-density along one line

------------------------ aborting loop because EDIFF is reached ----------------------------------------

  FORCE on cell =-STRESS in cart. coord.  units (eV):
  Direction    XX          YY          ZZ          XY          YZ          ZX
  Alpha Z    88.20732    88.20732    88.20732
  Ewald   48750.76412 48750.95932-53688.19370    -0.05922     0.00795    -0.20242
  Hartree 49465.63515 49465.77229-49112.46393    -0.03666     0.00424    -0.04518
  E(xc)    -609.93580  -609.94253  -617.03187     0.00115    -0.00152     0.00932
  Local  ************************100242.45590     0.10633    -0.01792     0.27920
  n-local  1214.89019  1214.73550  1250.43225     0.01116    -0.00653    -0.00207
  augment  -212.56448  -212.50925  -215.35095    -0.00512     0.00342    -0.01099
  Kinetic  2013.01067  2013.19930  2049.63877    -0.02109     0.01374    -0.04444
  Fock        0.00000     0.00000     0.00000     0.00000     0.00000     0.00000
  Total       0.08501     0.12569    -2.30622    -0.00347     0.00338    -0.01659
  in kB       0.05612     0.08297    -1.52240    -0.00229     0.00223    -0.01095

 VOLUME and BASIS-vectors are now :
  energy-cutoff  :      280.00
  volume of cell :     2427.07
      direct lattice vectors                 reciprocal lattice vectors
     8.369391444  4.833081555  0.000000000     0.059742423  0.103452066  0.000000000
    -8.369520262  4.833305336  0.000000000    -0.059739657  0.103450474  0.000000000
     0.000000000  0.000000000 30.000000000     0.000000000  0.000000000  0.033333333

  length of vectors
     9.664646422  9.664869885 30.000000000     0.119463330  0.119460568  0.033333333

 FORCES acting on ions
    electron-ion (+dipol)            ewald-force                    non-local-force                 convergence-correction
   0.572E+00 0.139E+00 -.879E+01   -.554E-01 -.147E+00 0.913E+01   -.527E+00 0.118E-01 -.335E+00   0.311E-01 0.369E-02 -.314E-02
   -.599E+00 0.159E+00 -.931E+01   0.386E+00 0.290E+00 0.965E+01   0.237E+00 -.494E+00 -.338E+00   -.526E-01 0.387E-01 0.223E-02
   -.714E+00 -.921E-01 -.919E+01   0.506E+00 -.363E+00 0.953E+01   0.225E+00 0.495E+00 -.337E+00   -.536E-01 -.335E-01 0.770E-03
   -.160E+02 -.279E+02 0.141E+01   0.157E+02 0.273E+02 -.159E+01   0.289E+00 0.481E+00 0.169E+00   0.240E-01 0.900E-01 0.423E-02
   -.160E+02 0.278E+02 0.146E+01   0.156E+02 -.272E+02 -.164E+01   0.291E+00 -.490E+00 0.170E+00   0.320E-01 -.916E-01 0.392E-02
   0.324E+02 -.941E-02 0.123E+01   -.318E+02 0.476E-02 -.140E+01   -.529E+00 -.247E-02 0.163E+00   -.476E-01 0.623E-02 0.556E-02
   0.174E+02 -.301E+02 0.830E+01   -.177E+02 0.305E+02 -.867E+01   0.255E+00 -.435E+00 0.365E+00   0.194E-01 0.527E-01 0.227E-02
   -.348E+02 -.154E-01 0.828E+01   0.352E+02 0.234E-01 -.865E+01   -.507E+00 -.178E-02 0.365E+00   0.289E-01 -.667E-02 0.118E-02
   0.174E+02 0.301E+02 0.830E+01   -.177E+02 -.305E+02 -.866E+01   0.257E+00 0.435E+00 0.365E+00   0.244E-01 -.576E-01 0.233E-02
   -.595E+01 -.247E+02 0.571E+03   0.514E+01 0.251E+02 -.574E+03   0.772E+00 -.476E+00 0.375E+01   0.409E-01 0.114E+00 0.596E-01
   -.397E+01 -.741E+01 -.532E+03   0.439E+01 0.794E+01 0.536E+03   -.413E+00 -.664E+00 -.341E+01   -.153E-01 0.123E+00 -.741E-01
   -.108E+00 0.132E-01 0.465E+03   0.736E-01 -.720E-02 -.470E+03   0.194E-02 -.941E-04 0.512E+01   0.332E-01 -.604E-02 -.177E-02
   0.152E+02 0.597E-01 -.530E+03   -.143E+02 -.557E-01 0.534E+03   -.103E+01 0.227E-03 -.449E+01   0.104E+00 -.354E-02 -.693E-01
   -.184E+02 -.175E+02 0.571E+03   0.192E+02 0.170E+02 -.575E+03   -.815E+00 0.403E+00 0.376E+01   0.224E-01 0.602E-01 0.376E-02
   -.779E+01 0.131E+02 -.530E+03   0.727E+01 -.122E+02 0.534E+03   0.525E+00 -.913E+00 -.448E+01   -.545E-02 0.248E-01 -.831E-02
   -.309E+00 0.734E-01 0.521E+03   0.370E+00 -.825E-01 -.525E+03   0.123E-01 -.164E-02 0.404E+01   -.729E-01 0.109E-01 0.108E+00
   0.831E+01 -.439E-01 -.531E+03   -.896E+01 0.259E-01 0.534E+03   0.761E+00 0.593E-02 -.344E+01   -.936E-01 0.128E-01 -.209E-01
   -.584E+01 0.247E+02 0.571E+03   0.503E+01 -.251E+02 -.575E+03   0.764E+00 0.484E+00 0.375E+01   0.466E-01 -.117E+00 0.576E-01
   -.403E+01 0.742E+01 -.533E+03   0.444E+01 -.796E+01 0.536E+03   -.411E+00 0.672E+00 -.340E+01   -.905E-03 -.123E+00 -.834E-01
   0.246E+02 0.697E+01 0.570E+03   -.245E+02 -.786E+01 -.574E+03   0.223E-01 0.920E+00 0.376E+01   -.544E-01 -.224E-01 -.303E-02
   0.959E+01 0.164E+02 -.621E+03   -.102E+02 -.173E+02 0.624E+03   0.581E+00 0.964E+00 -.356E+01   -.549E-02 -.538E-01 0.392E-01
   0.246E+02 -.697E+01 0.570E+03   -.245E+02 0.785E+01 -.574E+03   0.166E-01 -.919E+00 0.376E+01   -.622E-01 0.287E-01 0.754E-02
   0.958E+01 -.164E+02 -.621E+03   -.101E+02 0.173E+02 0.624E+03   0.576E+00 -.964E+00 -.356E+01   -.764E-02 0.570E-01 0.338E-01
   -.184E+02 0.174E+02 0.571E+03   0.192E+02 -.169E+02 -.575E+03   -.814E+00 -.396E+00 0.376E+01   0.315E-01 -.702E-01 0.120E-01
   -.785E+01 -.130E+02 -.530E+03   0.734E+01 0.122E+02 0.534E+03   0.523E+00 0.910E+00 -.448E+01   -.876E-02 -.378E-01 -.192E-01
   0.370E-01 -.129E-01 0.634E+03   -.639E-01 0.138E-01 -.638E+03   0.262E-01 -.545E-02 0.349E+01   0.649E-02 0.324E-02 -.605E-01
   -.188E+02 -.339E-01 -.621E+03   0.199E+02 0.388E-01 0.624E+03   -.113E+01 -.519E-02 -.356E+01   0.274E-01 -.187E-03 0.435E-01
   0.561E-01 -.178E-01 -.143E+01   0.213E-13 0.178E-13 -.227E-12   -.477E-01 0.138E-01 0.140E+01   -.826E-02 0.298E-02 0.439E-01

 POSITION                                       TOTAL-FORCE (eV/Angst)
     -0.02906      3.22298      0.04791         0.020722      0.008125     -0.003023
      2.80023      1.58241      0.05010        -0.028852     -0.006140      0.004172
      2.79916      4.86147      0.04960        -0.037132      0.007247      0.002332
     -0.09331     -0.16320     -0.00967        -0.003432     -0.013636     -0.002778
     -0.09285      6.60500     -0.00982        -0.001125      0.007665     -0.003634
      5.77102      3.22134     -0.00911         0.034307     -0.000848     -0.001032
      5.74122      6.16350     -0.02995         0.006938     -0.011915     -0.000177
     -5.90290      3.22152     -0.02962        -0.011236     -0.000439      0.001959
     -2.62817      5.11261     -0.02988         0.007018      0.011285      0.000046
     -0.87941      1.61146     28.44933         0.001614     -0.008302      0.011292
      0.93451      1.61982      1.42565        -0.007466     -0.006933     -0.006959
     -3.71969      3.22152     28.77102         0.000707     -0.000070      0.045830
     -1.86020      3.22155      1.43283         0.003606      0.000667     -0.020250
     -6.53317      4.87665     28.44836        -0.004031     -0.003207      0.001485
     -4.64958      4.83181      1.43214        -0.002018      0.000577     -0.014316
      1.85997      3.22147     28.59176         0.000062      0.000180     -0.000804
      3.70978      3.22164      1.42132         0.013029      0.000784     -0.032320
     -0.87959      4.83114     28.44857        -0.000390      0.007341      0.008497
      0.93481      4.82302      1.42687        -0.006285      0.006514     -0.000198
     -3.74565      6.48714     28.45078         0.005790      0.009196      0.012374
     -1.84031      6.47698      1.68842         0.004684      0.005668      0.001090
      4.62385      4.78880     28.45093         0.006062     -0.009803      0.014954
      6.52904      4.79915      1.68848         0.004338     -0.005757      0.000535
      1.83648      6.39939     28.44781        -0.002854      0.004371      0.001394
      3.71979      6.44431      1.43250        -0.002970     -0.000876     -0.016214
     -0.92900      8.05440     28.27535         0.005741     -0.001281     -0.006265
      0.89086      8.05457      1.68834        -0.006826     -0.000414      0.002008
    total drift:                                0.000136     -0.001046      0.007706

  FREE ENERGIE OF THE ION-ELECTRON SYSTEM (eV)
  free  energy   TOTEN  =      -192.21133875 eV

  energy  without entropy=     -191.99880425  energy(sigma->0) =     -192.10507150

 d Force = 0.2714149E-03[ 0.265E-03, 0.278E-03]  d Energy = 0.2721885E-03-0.774E-06
 d Force =-0.3474735E+01[-0.347E+01,-0.348E+01]  d Ewald  = 0.1296542E+02-0.164E+02

 Quasi-Newton relaxation of ions (Broydens 2nd method)
  g(Force)  = 0.506E-03   g(Stress)= 0.412E-04

 retain information from N=  1 steps
 eigenvalues of (default step * inverse Hessian matrix)
  average eigenvalue of G=   0.8899
 eigenvalue spectrum of G is  0.8899

 reached required accuracy - stopping structural energy minimisation