 vasp.5.4.1 05Feb16 (build Jul 05 2020 17:13:04) complex

 executed on           IFC91_ompi date 2024.05.19  15:06:00

 INCAR:
 POTCAR:   PAW_PBE V 08Apr2002
 POTCAR:   PAW_PBE Mo 08Apr2002
 POTCAR:   PAW_PBE W 08Apr2002
 POTCAR:    PAW_PBE S 17Jan2003

 POTCAR:   PAW_PBE V 08Apr2002
   VRHFIN =V: p6 d4 s1

   TITEL  = PAW_PBE V 08Apr2002
   POMASS =   50.941; ZVAL   =    5.000    mass and valenz
   ENMAX  =  192.543; ENMIN  =  144.408 eV
   QCUT   =   -3.762; QGAM   =    7.524    optimization parameters

   Description
     l     E      TYP  RCUT    TYP  RCUT
     2   .000     23  2.700
     2   .000     23  2.700
     0   .000     23  2.700
     0  2.000     23  2.700
     1   .000     23  2.700
     1  2.000     23  2.700
     3   .000      7   .000

 POTCAR:   PAW_PBE Mo 08Apr2002
   VRHFIN =Mo: 4p5s4d

[...]

 POTCAR:   PAW_PBE W 08Apr2002
   VRHFIN =W : 6s5d

   TITEL  = PAW_PBE W 08Apr2002
   POMASS =  183.850; ZVAL   =    6.000    mass and valenz
   ENMAX  =  223.057; ENMIN  =  167.293 eV
   QCUT   =   -4.049; QGAM   =    8.098    optimization parameters

[...]

 POTCAR:    PAW_PBE S 17Jan2003
   VRHFIN =S : s2p4

   TITEL  = PAW_PBE S 17Jan2003
   POMASS =   32.066; ZVAL   =    6.000    mass and valenz
   ENMAX  =  280.000; ENMIN  =  194.016 eV
   QCUT   =   -4.360; QGAM   =    8.721    optimization parameters

   Description
     l     E      TYP  RCUT    TYP  RCUT
     0   .000     23  1.900
     0   .000     23  1.900
     1   .000     23  1.900
     1   .000     23  1.900
     2   .000     23  1.900

 PAW_PBE V 08Apr2002                    :
 PAW_PBE Mo 08Apr2002                   :
 PAW_PBE W 08Apr2002                    :
  PAW_PBE S 17Jan2003                   :

 POSCAR: crystal structure from VMoWS2 with Hexag
  positions in cartesian coordinates
 exchange correlation table for  LEXCH =        8
   RHO(1)=    0.500       N(1)  =     2000
   RHO(2)=  100.500       N(2)  =     4000

 ion  position               nearest neighbor table
   1  0.667  0.667  0.000-  21 2.34  24 2.34  27 2.36  26 2.36  19 2.36  18 2.36
   2  0.333  0.667  0.000-  15 2.34  18 2.34  20 2.36  21 2.36  13 2.36  12 2.36
   3  0.667  0.000  0.000-  17 2.34  26 2.34  23 2.36  22 2.36  21 2.36  20 2.36
   4  0.333  0.000  0.000-  11 2.34  20 2.34  17 2.36  16 2.36  15 2.36  14 2.36   5 3.34   6 3.34
                             8 3.36   9 3.36
   5  0.333  0.333  0.000-  13 2.34  16 2.34  19 2.36  18 2.36  11 2.36  10 2.36   4 3.34   7 3.34
                             9 3.34   6 3.36
   6  0.000  0.000  0.000-  23 2.34  14 2.34  11 2.36  10 2.36  27 2.36  26 2.36   8 3.34   7 3.34
                             4 3.34   5 3.36
   7  1.000  0.333  0.000-  25 2.34  10 2.34  13 2.36  12 2.36  22 2.36  23 2.36   9 3.34   8 3.34
                             6 3.34   5 3.34
   8  0.000  0.667  0.000-  27 2.34  12 2.34  14 2.36  15 2.36  24 2.36  25 2.36   6 3.34   7 3.34
                             4 3.36   9 3.36
   9  0.667  0.333  0.000-  19 2.34  22 2.34  25 2.36  24 2.36  17 2.36  16 2.36   7 3.34   5 3.34
                             8 3.36   4 3.36
  10  0.111  0.222  0.955-   7 2.34   6 2.36   5 2.36
  11  0.222  0.111  0.045-   4 2.34   6 2.36   5 2.36
  12  0.111  0.556  0.955-   8 2.34   7 2.36   2 2.36
  13  0.222  0.444  0.045-   5 2.34   7 2.36   2 2.36
  14  0.111  0.889  0.955-   6 2.34   8 2.36   4 2.36
  15  0.222  0.777  0.045-   2 2.34   8 2.36   4 2.36
  16  0.444  0.222  0.955-   5 2.34   4 2.36   9 2.36
  17  0.556  0.111  0.045-   3 2.34   4 2.36   9 2.36
  18  0.444  0.556  0.955-   2 2.34   5 2.36   1 2.36
  19  0.556  0.444  0.045-   9 2.34   5 2.36   1 2.36
  20  0.444  0.889  0.955-   4 2.34   2 2.36   3 2.36
  21  0.556  0.777  0.045-   1 2.34   2 2.36   3 2.36
  22  0.777  0.222  0.955-   9 2.34   3 2.36   7 2.36
  23  0.889  0.111  0.045-   6 2.34   3 2.36   7 2.36
  24  0.777  0.556  0.955-   1 2.34   9 2.36   8 2.36
  25  0.889  0.444  0.045-   7 2.34   9 2.36   8 2.36
  26  0.777  0.889  0.955-   3 2.34   1 2.36   6 2.36
  27  0.889  0.777  0.045-   8 2.34   1 2.36   6 2.36

IMPORTANT INFORMATION: All symmetrisations will be switched off!
NOSYMM: (Re-)initialisation of all symmetry stuff for point group C_1.

 KPOINTS: K-POINTS 	#supercell of CrS2 in hexagona

Automatic generation of k-mesh.
Space group operators:
 irot       det(A)        alpha          n_x          n_y          n_z        tau_x        tau_y        tau_z
    1     1.000000     0.000000     1.000000     0.000000     0.000000     0.000000     0.000000     0.000000

 Subroutine IBZKPT returns following result:

 Found     34 irreducible k-points:

 Following reciprocal coordinates:
            Coordinates               Weight
  0.000000  0.000000  0.000000      1.000000
  0.125000  0.000000  0.000000      2.000000
  0.250000  0.000000  0.000000      2.000000
  0.375000  0.000000  0.000000      2.000000
  0.500000  0.000000  0.000000      1.000000
  0.000000  0.125000  0.000000      2.000000
  0.125000  0.125000  0.000000      2.000000
  0.250000  0.125000  0.000000      2.000000
  0.375000  0.125000  0.000000      2.000000
  0.500000  0.125000  0.000000      2.000000
 -0.375000  0.125000  0.000000      2.000000
 -0.250000  0.125000  0.000000      2.000000
 -0.125000  0.125000  0.000000      2.000000
  0.000000  0.250000  0.000000      2.000000
  0.125000  0.250000  0.000000      2.000000
  0.250000  0.250000  0.000000      2.000000
  0.375000  0.250000  0.000000      2.000000
  0.500000  0.250000  0.000000      2.000000
 -0.375000  0.250000  0.000000      2.000000
 -0.250000  0.250000  0.000000      2.000000
 -0.125000  0.250000  0.000000      2.000000
 -0.000000  0.375000  0.000000      2.000000
  0.125000  0.375000  0.000000      2.000000
  0.250000  0.375000  0.000000      2.000000
  0.375000  0.375000  0.000000      2.000000
  0.500000  0.375000  0.000000      2.000000
 -0.375000  0.375000  0.000000      2.000000
 -0.250000  0.375000  0.000000      2.000000
 -0.125000  0.375000  0.000000      2.000000
  0.000000  0.500000  0.000000      1.000000
  0.125000  0.500000  0.000000      2.000000
  0.250000  0.500000  0.000000      2.000000
  0.375000  0.500000  0.000000      2.000000
  0.500000  0.500000  0.000000      1.000000

 Following cartesian coordinates:
            Coordinates               Weight
  0.000000  0.000000  0.000000      1.000000
  0.007209  0.012401  0.000000      2.000000
  0.014418  0.024802  0.000000      2.000000
  0.021626  0.037202  0.000000      2.000000
  0.028835  0.049603  0.000000      1.000000
 -0.007209  0.012401  0.000000      2.000000
  0.000000  0.024802  0.000000      2.000000
  0.007209  0.037202  0.000000      2.000000
  0.014418  0.049603  0.000000      2.000000
  0.021626  0.062004  0.000000      2.000000
 -0.028835 -0.024802  0.000000      2.000000
 -0.021626 -0.012401  0.000000      2.000000
 -0.014418  0.000000  0.000000      2.000000
 -0.014418  0.024802  0.000000      2.000000
 -0.007209  0.037202  0.000000      2.000000
  0.000000  0.049603  0.000000      2.000000
  0.007209  0.062004  0.000000      2.000000
  0.014418  0.074405  0.000000      2.000000
 -0.036044 -0.012401  0.000000      2.000000
 -0.028835  0.000000  0.000000      2.000000
 -0.021626  0.012401  0.000000      2.000000
 -0.021626  0.037202  0.000000      2.000000
 -0.014418  0.049603  0.000000      2.000000
 -0.007209  0.062004  0.000000      2.000000
  0.000000  0.074405  0.000000      2.000000
  0.007209  0.086806  0.000000      2.000000
 -0.043253  0.000000  0.000000      2.000000
 -0.036044  0.012401  0.000000      2.000000
 -0.028835  0.024802  0.000000      2.000000
 -0.028835  0.049603  0.000000      1.000000
 -0.021626  0.062004  0.000000      2.000000
 -0.014418  0.074405  0.000000      2.000000
 -0.007209  0.086806  0.000000      2.000000
  0.000000  0.099206  0.000000      1.000000

 I would recommend the setting:
   dimension x,y,z NGX =    41 NGY =   41 NGZ =  123
 SYSTEM =  unknown system
 POSCAR =  crystal structure from VMoWS2 with Hexag

 Startparameter for this run:
   NWRITE =      2    write-flag & timer
   PREC   = normal    normal or accurate (medium, high low for compatibility)
   ISTART =      0    job   : 0-new  1-cont  2-samecut
   ICHARG =      2    charge: 1-file 2-atom 10-const
   ISPIN  =      1    spin polarized calculation?
   LNONCOLLINEAR =      F non collinear calculations
   LSORBIT =      F    spin-orbit coupling
   INIWAV =      1    electr: 0-lowe 1-rand  2-diag
   LASPH  =      F    aspherical Exc in radial PAW
   METAGGA=      F    non-selfconsistent MetaGGA calc.

 Electronic Relaxation 1
   ENCUT  =  280.0 eV  20.58 Ry    4.54 a.u.  13.68 13.68 40.93*2*pi/ulx,y,z
   ENINI  =  280.0     initial cutoff
   ENAUG  =  373.4 eV  augmentation charge cutoff
   NELM   =     60;   NELMIN=  2; NELMDL= -5     # of ELM steps
   EDIFF  = 0.1E-03   stopping-criterion for ELM
   LREAL  =      F    real-space projection
   NLSPLINE    = F    spline interpolate recip. space projectors
   LCOMPAT=      F    compatible to vasp.4.4
   GGA_COMPAT  = T    GGA compatible to vasp.4.4-vasp.4.6
   LMAXPAW     = -100 max onsite density
   LMAXMIX     =    2 max onsite mixed and CHGCAR
   VOSKOWN=      0    Vosko Wilk Nusair interpolation
   ROPT   =    0.00000   0.00000   0.00000   0.00000
 Ionic relaxation
   EDIFFG = 0.1E-02   stopping-criterion for IOM
   NSW    =    100    number of steps for IOM
   NBLOCK =      1;   KBLOCK =    100    inner block; outer block
   IBRION =      1    ionic relax: 0-MD 1-quasi-New 2-CG
   NFREE  =      0    steps in history (QN), initial steepest desc. (CG)
   ISIF   =      3    stress and relaxation
   IWAVPR =     11    prediction:  0-non 1-charg 2-wave 3-comb
   ISYM   =      0    0-nonsym 1-usesym 2-fastsym
   LCORR  =      T    Harris-Foulkes like correction to forces

   POTIM  = 0.5000    time-step for ionic-motion
   TEIN   =    0.0    initial temperature
   TEBEG  =    0.0;   TEEND  =   0.0 temperature during run
   SMASS  =  -3.00    Nose mass-parameter (am)
   estimated Nose-frequenzy (Omega)   =  0.10E-29 period in steps =****** mass=  -0.230E-26a.u.
   SCALEE = 1.0000    scale energy and forces
   NPACO  =    256;   APACO  = 16.0  distance and # of slots for P.C.
   PSTRESS=    0.0 pullay stress

  Mass of Ions in am
   POMASS =  50.94 95.94183.85 32.07
  Ionic Valenz
   ZVAL   =   5.00  6.00  6.00  6.00
  Atomic Wigner-Seitz radii
  virtual crystal weights
   VCA    =   1.00  1.00  1.00  1.00
   NELECT =     159.0000    total number of electrons
   NUPDOWN=      -1.0000    fix difference up-down

 DOS related values:
   EMIN   =  10.00;   EMAX   =-10.00  energy-range for DOS
   EFERMI =   0.00
   ISMEAR =     0;   SIGMA  =   0.20  broadening in eV -4-tet -1-fermi 0-gaus

 Electronic relaxation 2 (details)
   IALGO  =     38    algorithm
   LDIAG  =      T    sub-space diagonalisation (order eigenvalues)
   LSUBROT=      F    optimize rotation matrix (better conditioning)
   TURBO    =      0    0=normal 1=particle mesh
   IRESTART =      0    0=no restart 2=restart with 2 vectors
   NREBOOT  =      0    no. of reboots
   NMIN     =      0    reboot dimension
   EREF     =   0.00    reference energy to select bands
[...]
      1.92100      3.35900     28.66200         0.227232      0.185027     -2.903041
      3.85900      3.35900      1.33800         0.664185      0.138861      2.112706
     -0.96900      5.03900     28.66200        -0.329059      0.677681     -1.378879
      0.96900      5.03900      1.33800        -0.376986      0.692687      2.161896
     -3.85900      6.71900     28.66200         0.909482     -0.001133     -1.415734
     -1.92100      6.71900      1.33800        -0.063883     -0.000882      0.792533
      4.81100      5.03900     28.66200         0.447925     -0.543219     -2.165840
      6.74900      5.03900      1.33800        -0.604777     -0.557368      2.154053
      1.92100      6.71900     28.66200        -0.566804      0.002704     -2.125376
      3.85900      6.71900      1.33800        -0.140982      0.003601      2.802749
     -0.96900      8.39900     28.66200        -0.327189     -0.676689     -1.375492
      0.96900      8.39900      1.33800        -0.379537     -0.691495      2.158054
    total drift:                                0.000867      0.000267      0.001265

  FREE ENERGIE OF THE ION-ELECTRON SYSTEM (eV)
  free  energy   TOTEN  =      -186.81241845 eV

  energy  without entropy=     -186.46795213  energy(sigma->0) =     -186.64018529

 Quasi-Newton relaxation of ions (Broydens 2nd method)
  g(Force)  = 0.476E+01   g(Stress)= 0.364E+00

 Reset! Starting new Quasi-Newton update for ions

[...]

 d Force = 0.2428542E+01[ 0.931E-01, 0.476E+01]  d Energy = 0.1848287E+01 0.580E+00
 d Force = 0.9590474E+03[ 0.941E+03, 0.977E+03]  d Ewald  = 0.2539274E+04-0.158E+04

[...]

 retain information from N=  1 steps
 eigenvalues of (default step * inverse Hessian matrix)
  average eigenvalue of G=   0.2444
 eigenvalue spectrum of G is  0.2444

[...]

 d Force = 0.5073903E-01[ 0.494E-01, 0.521E-01]  d Energy = 0.1121460E+01-0.107E+01
 d Force =-0.4226641E+01[-0.432E+01,-0.413E+01]  d Ewald  =-0.1936767E+04 0.193E+04

[...]

 d Force = 0.5347739E+00[ 0.475E+00, 0.594E+00]  d Energy = 0.1059464E+01-0.525E+00
 d Force = 0.4117803E+03[ 0.421E+03, 0.402E+03]  d Ewald  =-0.1545266E+04 0.196E+04

[...]

 d Force = 0.1313837E+00[ 0.131E+00, 0.132E+00]  d Energy = 0.1339307E+00-0.255E-02
 d Force =-0.2082338E+02[-0.209E+02,-0.208E+02]  d Ewald  = 0.1202876E+03-0.141E+03

[...]

 d Force = 0.5087000E-01[ 0.495E-01, 0.522E-01]  d Energy = 0.5066220E-01 0.208E-03
 d Force = 0.2246006E+02[ 0.225E+02, 0.225E+02]  d Ewald  =-0.6524735E+01 0.290E+02

[...]

 d Force = 0.2259027E-01[ 0.110E-01, 0.342E-01]  d Energy = 0.2498639E-01-0.240E-02
 d Force =-0.3057429E+02[-0.306E+02,-0.306E+02]  d Ewald  = 0.1073189E+03-0.138E+03

[...]

 d Force = 0.3164780E-01[-0.311E-01, 0.944E-01]  d Energy = 0.3625900E-01-0.461E-02
 d Force =-0.8310670E+02[-0.822E+02,-0.840E+02]  d Ewald  = 0.1532745E+03-0.236E+03

[...]

 d Force = 0.4356287E-02[-0.973E-02, 0.184E-01]  d Energy = 0.4103689E-02 0.253E-03
 d Force = 0.1287807E+02[ 0.129E+02, 0.128E+02]  d Ewald  =-0.3046009E+00 0.132E+02

[...]

 d Force = 0.4282893E-02[-0.555E-04, 0.862E-02]  d Energy = 0.4729736E-02-0.447E-03
 d Force =-0.4122442E+02[-0.411E+02,-0.413E+02]  d Ewald  = 0.6804005E+02-0.109E+03

[...]

 FEWALD executed in parallel

[...]

 eigenvalue-minimisations  : 11000
 total energy-change (2. order) :-0.1705401E-03  (-0.2086084E-03)
 number of electron     158.9999646 magnetization
 augmentation part       -4.2306019 magnetization

 Broyden mixing:
  rms(total) = 0.87594E-02    rms(broyden)= 0.87568E-02
  rms(prec ) = 0.97221E-02
  weight for this iteration     100.00

 eigenvalues of (default mixing * dielectric matrix)
  average eigenvalue GAMMA=   0.3452
  0.3452

[...]

----------------------------------------- Iteration   14(   3)  ---------------------------------------

 eigenvalue-minimisations  :  8880
 total energy-change (2. order) : 0.3733102E-04  (-0.4777557E-04)
 number of electron     158.9999646 magnetization
 augmentation part       -4.2306019 magnetization

 Free energy of the ion-electron system (eV)
  alpha Z        PSCENC =        88.20986489
  Ewald energy   TEWEN  =     43813.99487595
  -Hartree energ DENC   =    -49819.93944739
  -exchange      EXHF   =         0.00000000
  -V(xc)+E(xc)   XCENC  =      -233.81220539
  PAW double counting   =      4093.48567842    -3509.59187865
  entropy T*S    EENTRO =        -0.21292426
  eigenvalues    EBANDS =     -1385.78811872
  atomic energy  EATOM  =      6761.44252427
  Solvation  Ediel_sol  =         0.00000000
  free energy    TOTEN  =      -192.21163087 eV

  energy without entropy =     -191.99870661  energy(sigma->0) =     -192.10516874

 average (electrostatic) potential at core
  the test charge radii are     1.2064  1.2296  1.1823  0.9698
  (the norm of the test charge is              1.0000)
       1 -49.9544       2 -49.9582       3 -49.9653       4 -46.9430       5 -46.9445
       6 -46.9446       7 -49.5791       8 -49.5853       9 -49.5864      10 -95.1976
      11 -95.0888      12 -94.8821      13 -95.0569      14 -95.1943      15 -95.0529
      16 -95.1937      17 -95.0542      18 -94.8050      19 -95.0609      20 -94.7788
      21 -94.7500      22 -94.8820      23 -95.0586      24 -94.8770      25 -94.5168
      26 -94.8094      27 -95.0617

 E-fermi :  -3.1294     XC(G=0):  -2.5382     alpha+bet : -2.3330

[...]

 k-point    34 :       0.5000    0.5000    0.0000
  band No.  band energies     occupation
      1     -17.4303      2.00000
      2     -17.3368      2.00000
      3     -16.7274      2.00000
      4     -16.6925      2.00000
      5     -16.5208      2.00000
      6     -16.3471      2.00000
      7     -16.2414      2.00000
      8     -16.1972      2.00000
      9     -16.0327      2.00000
     10     -16.0058      2.00000
     11     -15.9168      2.00000
     12     -15.9046      2.00000
     13     -15.7792      2.00000
     14     -15.7268      2.00000
     15     -15.6030      2.00000
     16     -15.5924      2.00000
     17     -15.5090      2.00000
     18     -15.4817      2.00000
     19      -9.7600      2.00000
     20      -9.2845      2.00000
     21      -9.1403      2.00000
     22      -9.0442      2.00000
     23      -8.8976      2.00000
     24      -8.7757      2.00000
     25      -8.5566      2.00000
     26      -8.5320      2.00000
     27      -8.4003      2.00000
     28      -8.3152      2.00000
     29      -8.2806      2.00000
     30      -8.1795      2.00000
     31      -8.0913      2.00000
     32      -8.0171      2.00000
     33      -7.8888      2.00000
     34      -7.8665      2.00000
     35      -7.7524      2.00000
     36      -7.6185      2.00000
     37      -7.4782      2.00000
     38      -7.4333      2.00000
     39      -7.4291      2.00000
     40      -7.1965      2.00000
     41      -7.1311      2.00000
     42      -7.0831      2.00000
     43      -6.9891      2.00000
     44      -6.9324      2.00000
     45      -6.7629      2.00000
     46      -6.7192      2.00000
     47      -6.6992      2.00000
     48      -6.6247      2.00000
     49      -6.5250      2.00000
     50      -6.4223      2.00000
     51      -6.3853      2.00000
     52      -6.3622      2.00000
     53      -6.3380      2.00000
     54      -6.2691      2.00000
     55      -6.1758      2.00000
     56      -6.0370      2.00000
     57      -6.0320      2.00000
     58      -6.0191      2.00000
     59      -5.9478      2.00000
     60      -5.8755      2.00000
[...]
    106      -0.5117      0.00000
    107      -0.2548      0.00000
    108      -0.2053      0.00000
    109      -0.0910      0.00000
    110       0.2828      0.00000
    111       0.4200      0.00000
    112       0.6582      0.00000
    113       0.9193      0.00000
    114       0.9904      0.00000
    115       1.0762      0.00000
    116       1.2074      0.00000
    117       1.3935      0.00000
    118       2.2108      0.00000
    119       2.2419      0.00000
    120       2.3586      0.00000

 soft charge-density along one line, spin component           1
         0         1         2         3         4         5         6         7         8         9
 total charge-density along one line

------------------------ aborting loop because EDIFF is reached ----------------------------------------

  FORCE on cell =-STRESS in cart. coord.  units (eV):
  Direction    XX          YY          ZZ          XY          YZ          ZX
  Alpha Z    88.20986    88.20986    88.20986
  Ewald   48750.99062 48751.52628-53688.53894     0.00522    -0.05138    -0.17047
  Hartree 49467.47976 49467.85305-49114.42904     0.07528    -0.01856    -0.04352
  E(xc)    -609.90021  -609.91471  -616.99674    -0.00287     0.00083     0.01126
  Local  ************************100245.10716    -0.10678     0.07882     0.25236
  n-local  1214.90397  1214.71926  1250.42644    -0.01215    -0.00612     0.00838
  augment  -212.31485  -212.23512  -215.10291     0.01001     0.00172    -0.01534
  Kinetic  2012.55359  2012.82467  2049.38088     0.01815    -0.01238    -0.07498
  Fock        0.00000     0.00000     0.00000     0.00000     0.00000     0.00000
  Total       0.24994     0.30676    -1.94328    -0.01313    -0.00708    -0.03232
  in kB       0.16499     0.20250    -1.28285    -0.00867    -0.00468    -0.02133

 VOLUME and BASIS-vectors are now :
  energy-cutoff  :      280.00
  volume of cell :     2427.00
      direct lattice vectors                 reciprocal lattice vectors
     8.369544292  4.833291057  0.000000000     0.059738631  0.103452259  0.000000000
    -8.369294075  4.832858895  0.000000000    -0.059743973  0.103455352  0.000000000
     0.000000000  0.000000000 30.000000000     0.000000000  0.000000000  0.033333333

  length of vectors
     9.664883553  9.664450756 30.000000000     0.119461601  0.119466950  0.033333333

 FORCES acting on ions
    electron-ion (+dipol)            ewald-force                    non-local-force                 convergence-correction
   -.534E+00 0.139E+00 0.869E+01   -.634E-01 -.107E+00 -.902E+01   0.528E+00 0.102E-01 0.332E+00   0.422E-01 -.314E-01 0.110E-01
   0.810E+00 0.696E-01 0.928E+01   -.565E+00 0.499E+00 -.963E+01   -.223E+00 -.504E+00 0.336E+00   0.204E-01 -.689E-01 0.632E-02
   0.885E+00 0.430E-01 0.920E+01   -.646E+00 -.540E+00 -.955E+01   -.216E+00 0.511E+00 0.333E+00   0.232E-01 0.910E-03 0.290E-02
   -.324E+02 0.311E-01 -.111E+01   0.319E+02 0.873E-02 0.126E+01   0.522E+00 -.913E-03 -.165E+00   -.852E-01 -.373E-01 0.906E-02
   0.160E+02 -.277E+02 -.133E+01   -.157E+02 0.272E+02 0.149E+01   -.294E+00 0.485E+00 -.173E+00   -.356E-02 -.965E-02 0.127E-01
   0.159E+02 0.276E+02 -.138E+01   -.156E+02 -.271E+02 0.154E+01   -.297E+00 -.492E+00 -.174E+00   0.628E-01 0.484E-01 0.104E-01
   0.346E+02 -.856E-01 -.835E+01   -.351E+02 -.388E-02 0.871E+01   0.501E+00 -.610E-02 -.370E+00   -.836E-02 0.872E-01 0.735E-03
   -.175E+02 0.299E+02 -.843E+01   0.177E+02 -.303E+02 0.880E+01   -.254E+00 0.426E+00 -.372E+00   0.112E-01 -.205E-01 -.128E-02
   -.174E+02 -.299E+02 -.839E+01   0.177E+02 0.303E+02 0.876E+01   -.249E+00 -.429E+00 -.371E+00   -.693E-01 0.542E-01 0.599E-03
   0.188E+02 -.532E-01 0.621E+03   -.200E+02 0.256E-01 -.624E+03   0.113E+01 -.413E-02 0.358E+01   0.296E-01 0.316E-01 0.105E-01
   -.675E-01 -.475E-02 -.634E+03   0.992E-01 0.538E-02 0.638E+03   -.358E-01 -.443E-02 -.348E+01   -.367E-02 0.294E-02 -.105E-01
   0.786E+01 0.130E+02 0.530E+03   -.732E+01 -.120E+02 -.534E+03   -.529E+00 -.916E+00 0.448E+01   -.107E-01 -.204E-01 0.129E-01
   0.185E+02 -.174E+02 -.571E+03   -.193E+02 0.170E+02 0.575E+03   0.818E+00 0.393E+00 -.376E+01   0.230E-01 -.459E-02 0.425E-02
   -.969E+01 0.164E+02 0.621E+03   0.103E+02 -.173E+02 -.624E+03   -.583E+00 0.953E+00 0.358E+01   -.638E-02 0.968E-02 0.113E-01
   -.247E+02 0.695E+01 -.570E+03   0.247E+02 -.785E+01 0.574E+03   -.158E-01 0.921E+00 -.377E+01   -.265E-01 -.222E-01 0.257E-01
   -.964E+01 -.164E+02 0.621E+03   0.103E+02 0.174E+02 -.624E+03   -.578E+00 -.952E+00 0.358E+01   -.451E-01 -.142E-01 0.195E-02
   -.246E+02 -.691E+01 -.570E+03   0.247E+02 0.785E+01 0.574E+03   -.818E-02 -.921E+00 -.377E+01   -.141E+00 -.201E-01 0.122E+00
   0.402E+01 -.732E+01 0.533E+03   -.445E+01 0.802E+01 -.536E+03   0.418E+00 -.657E+00 0.343E+01   0.245E-01 -.425E-01 -.213E-02
   0.584E+01 -.246E+02 -.571E+03   -.506E+01 0.251E+02 0.575E+03   -.771E+00 -.476E+00 -.376E+01   -.147E-01 -.179E-01 0.104E-01
   -.821E+01 0.944E-01 0.531E+03   0.902E+01 0.403E-01 -.534E+03   -.741E+00 0.906E-02 0.348E+01   -.817E-01 -.137E+00 -.117E+00
   0.508E+00 0.162E+00 -.521E+03   -.569E+00 -.306E-01 0.525E+03   -.167E-01 0.972E-03 -.407E+01   0.751E-01 -.128E+00 0.988E-01
   0.797E+01 -.131E+02 0.530E+03   -.735E+01 0.120E+02 -.534E+03   -.526E+00 0.912E+00 0.449E+01   -.848E-01 0.157E+00 -.943E-01
   0.184E+02 0.172E+02 -.572E+03   -.194E+02 -.170E+02 0.575E+03   0.817E+00 -.394E+00 -.376E+01   0.924E-01 0.119E+00 0.109E+00
   -.153E+02 0.363E-01 0.530E+03   0.143E+02 -.406E-01 -.534E+03   0.104E+01 0.607E-03 0.450E+01   0.191E-01 0.484E-02 0.114E-01
   0.683E-01 -.214E-01 -.464E+03   -.503E-01 -.202E-01 0.469E+03   -.321E-02 0.432E-03 -.512E+01   -.161E-01 0.411E-01 -.235E-01
   0.395E+01 0.736E+01 0.533E+03   -.452E+01 -.802E+01 -.536E+03   0.411E+00 0.665E+00 0.342E+01   0.163E+00 0.525E-02 -.984E-01
   0.573E+01 0.246E+02 -.571E+03   -.499E+01 -.251E+02 0.575E+03   -.766E+00 0.482E+00 -.376E+01   0.288E-01 0.143E-01 0.174E-01
   -.874E-01 -.120E-01 0.120E+01   -.568E-13 -.142E-13 -.568E-12   0.720E-01 0.118E-01 -.134E+01   0.175E-01 0.284E-02 0.141E+00

 POSITION                                       TOTAL-FORCE (eV/Angst)
      0.03062      6.44463     -0.04758        -0.027583      0.009810      0.006691
     -2.79879      4.80197     -0.05007         0.041335     -0.004642     -0.005027
      5.57128      3.25256     -0.04974         0.046453      0.014705     -0.006602
      2.59755      1.61043      0.00889        -0.031833      0.001596     -0.005272
      0.09284      3.05965      0.00960        -0.002050     -0.002792     -0.002620
      0.09236      0.16019      0.00973        -0.007065     -0.002433     -0.001808
      5.90395      6.44366      0.02974         0.001521     -0.008409     -0.009400
     -5.74206      3.50203      0.03028        -0.002124      0.002618     -0.007294
      2.62740      4.55185      0.03022         0.003822     -0.008293     -0.005717
     -0.89022      1.61028     28.31049        -0.000591     -0.000138      0.014776
      0.92854      1.61015      1.72458        -0.007757     -0.000955      0.003214
     -3.72027      3.21957     28.56872         0.005468      0.008203      0.007292
     -1.83582      3.26525      1.55301        -0.000732     -0.004159     -0.004759
     -6.52945      4.86615     28.31041        -0.001015     -0.002145      0.015911
     -4.62424      4.87650      1.54945        -0.005356      0.006098     -0.020639
      1.84003      3.18764     28.31036        -0.001426      0.001471      0.016322
      3.74493      3.17723      1.54932        -0.000193     -0.006702     -0.025710
     -0.93434      4.84251     28.57392         0.007734     -0.005458      0.005736
      0.87908      4.83314      1.55142        -0.000561     -0.005303     -0.014801
     -3.70960      6.44335     28.57975        -0.007850      0.006566      0.047821
     -1.85956      6.44328      1.40736        -0.002091      0.004775     -0.002522
      4.64929      4.83424     28.56826         0.009172     -0.012747      0.012845
      6.53344      4.78870      1.55335        -0.004338     -0.000101     -0.006473
      1.86093      6.44358     28.56802        -0.011293      0.001000      0.010849
      3.71976      6.44357      1.22567        -0.001406     -0.000163     -0.019213
     -0.93438      8.04429     28.57284        -0.001177      0.003364      0.007744
      0.87927      8.05343      1.55199         0.000935      0.004231     -0.011343
    total drift:                                0.002154      0.002703      0.009604

  FREE ENERGIE OF THE ION-ELECTRON SYSTEM (eV)
  free  energy   TOTEN  =      -192.21163087 eV

  energy  without entropy=     -191.99870661  energy(sigma->0) =     -192.10516874

 d Force = 0.4043176E-03[ 0.223E-03, 0.586E-03]  d Energy = 0.4962244E-03-0.919E-04
 d Force = 0.2895149E+00[ 0.291E+00, 0.288E+00]  d Ewald  = 0.1331346E+02-0.130E+02

 Quasi-Newton relaxation of ions (Broydens 2nd method)
  g(Force)  = 0.620E-03   g(Stress)= 0.280E-03

 retain information from N=  2 steps
 eigenvalues of (default step * inverse Hessian matrix)
  average eigenvalue of G=   3.4476
 eigenvalue spectrum of G is  3.4476  3.4476

 reached required accuracy - stopping structural energy minimisation