 vasp.5.4.1 05Feb16 (build Jul 05 2020 17:13:04) complex

 executed on           IFC91_ompi date 2024.07.20  08:10:35

 INCAR:
 POTCAR:   PAW_PBE V 08Apr2002
 POTCAR:   PAW_PBE Mo 08Apr2002
 POTCAR:   PAW_PBE W 08Apr2002
 POTCAR:    PAW_PBE S 17Jan2003

 POTCAR:   PAW_PBE V 08Apr2002
   VRHFIN =V: p6 d4 s1

   TITEL  = PAW_PBE V 08Apr2002
   POMASS =   50.941; ZVAL   =    5.000    mass and valenz
   ENMAX  =  192.543; ENMIN  =  144.408 eV
   QCUT   =   -3.762; QGAM   =    7.524    optimization parameters

   Description
     l     E      TYP  RCUT    TYP  RCUT
     2   .000     23  2.700
     2   .000     23  2.700
     0   .000     23  2.700
     0  2.000     23  2.700
     1   .000     23  2.700
     1  2.000     23  2.700
     3   .000      7   .000

 POTCAR:   PAW_PBE Mo 08Apr2002
   VRHFIN =Mo: 4p5s4d

[...]

 POTCAR:   PAW_PBE W 08Apr2002
   VRHFIN =W : 6s5d

   TITEL  = PAW_PBE W 08Apr2002
   POMASS =  183.850; ZVAL   =    6.000    mass and valenz
   ENMAX  =  223.057; ENMIN  =  167.293 eV
   QCUT   =   -4.049; QGAM   =    8.098    optimization parameters

[...]

 POTCAR:    PAW_PBE S 17Jan2003
   VRHFIN =S : s2p4

   TITEL  = PAW_PBE S 17Jan2003
   POMASS =   32.066; ZVAL   =    6.000    mass and valenz
   ENMAX  =  280.000; ENMIN  =  194.016 eV
   QCUT   =   -4.360; QGAM   =    8.721    optimization parameters

   Description
     l     E      TYP  RCUT    TYP  RCUT
     0   .000     23  1.900
     0   .000     23  1.900
     1   .000     23  1.900
     1   .000     23  1.900
     2   .000     23  1.900

 PAW_PBE V 08Apr2002                    :
 PAW_PBE Mo 08Apr2002                   :
 PAW_PBE W 08Apr2002                    :
  PAW_PBE S 17Jan2003                   :

 POSCAR: crystal structure from VMoWS2 with Hexag
  positions in cartesian coordinates
 exchange correlation table for  LEXCH =        8
   RHO(1)=    0.500       N(1)  =     2000
   RHO(2)=  100.500       N(2)  =     4000

 ion  position               nearest neighbor table
   1  0.333  0.333  0.000-  13 2.34  16 2.34  19 2.36  18 2.36  11 2.36  10 2.36
   2  0.000  0.667  0.000-  27 2.34  12 2.34  14 2.36  15 2.36  24 2.36  25 2.36
   3  0.667  0.000  0.000-  17 2.34  26 2.34  23 2.36  22 2.36  21 2.36  20 2.36
   4  0.667  0.333  0.000-  19 2.34  22 2.34  25 2.36  24 2.36  17 2.36  16 2.36   7 3.34   9 3.34
                             8 3.36
   5  0.000  0.000  0.000-  23 2.34  14 2.34  11 2.36  10 2.36  27 2.36  26 2.36   7 3.34   8 3.34
                             9 3.36
   6  0.333  0.667  0.000-  15 2.34  18 2.34  20 2.36  21 2.36  13 2.36  12 2.36   8 3.34   9 3.34
                             7 3.36
   7  1.000  0.333  0.000-  25 2.34  10 2.34  13 2.36  12 2.36  22 2.36  23 2.36   4 3.34   5 3.34
                             6 3.36
   8  0.333  0.000  0.000-  11 2.34  20 2.34  17 2.36  16 2.36  15 2.36  14 2.36   6 3.34   5 3.34
                             4 3.36
   9  0.667  0.667  0.000-  21 2.34  24 2.34  27 2.36  26 2.36  19 2.36  18 2.36   4 3.34   6 3.34
                             5 3.36
  10  0.111  0.222  0.955-   7 2.34   5 2.36   1 2.36
  11  0.222  0.111  0.045-   8 2.34   5 2.36   1 2.36
  12  0.111  0.556  0.955-   2 2.34   7 2.36   6 2.36
  13  0.222  0.444  0.045-   1 2.34   7 2.36   6 2.36
  14  0.111  0.889  0.955-   5 2.34   2 2.36   8 2.36
  15  0.222  0.777  0.045-   6 2.34   2 2.36   8 2.36
  16  0.444  0.222  0.955-   1 2.34   8 2.36   4 2.36
  17  0.556  0.111  0.045-   3 2.34   8 2.36   4 2.36
  18  0.444  0.556  0.955-   6 2.34   1 2.36   9 2.36
  19  0.556  0.444  0.045-   4 2.34   1 2.36   9 2.36
  20  0.444  0.889  0.955-   8 2.34   6 2.36   3 2.36
  21  0.556  0.777  0.045-   9 2.34   6 2.36   3 2.36
  22  0.777  0.222  0.955-   4 2.34   3 2.36   7 2.36
  23  0.889  0.111  0.045-   5 2.34   3 2.36   7 2.36
  24  0.777  0.556  0.955-   9 2.34   4 2.36   2 2.36
  25  0.889  0.444  0.045-   7 2.34   4 2.36   2 2.36
  26  0.777  0.889  0.955-   3 2.34   9 2.36   5 2.36
  27  0.889  0.777  0.045-   2 2.34   9 2.36   5 2.36

IMPORTANT INFORMATION: All symmetrisations will be switched off!
NOSYMM: (Re-)initialisation of all symmetry stuff for point group C_1.

 KPOINTS: K-POINTS 	#supercell of CrS2 in hexagona

Automatic generation of k-mesh.
Space group operators:
 irot       det(A)        alpha          n_x          n_y          n_z        tau_x        tau_y        tau_z
    1     1.000000     0.000000     1.000000     0.000000     0.000000     0.000000     0.000000     0.000000

 Subroutine IBZKPT returns following result:

 Found     34 irreducible k-points:

 Following reciprocal coordinates:
            Coordinates               Weight
  0.000000  0.000000  0.000000      1.000000
  0.125000  0.000000  0.000000      2.000000
  0.250000  0.000000  0.000000      2.000000
  0.375000  0.000000  0.000000      2.000000
  0.500000  0.000000  0.000000      1.000000
  0.000000  0.125000  0.000000      2.000000
  0.125000  0.125000  0.000000      2.000000
  0.250000  0.125000  0.000000      2.000000
  0.375000  0.125000  0.000000      2.000000
  0.500000  0.125000  0.000000      2.000000
 -0.375000  0.125000  0.000000      2.000000
 -0.250000  0.125000  0.000000      2.000000
 -0.125000  0.125000  0.000000      2.000000
  0.000000  0.250000  0.000000      2.000000
  0.125000  0.250000  0.000000      2.000000
  0.250000  0.250000  0.000000      2.000000
  0.375000  0.250000  0.000000      2.000000
  0.500000  0.250000  0.000000      2.000000
 -0.375000  0.250000  0.000000      2.000000
 -0.250000  0.250000  0.000000      2.000000
 -0.125000  0.250000  0.000000      2.000000
 -0.000000  0.375000  0.000000      2.000000
  0.125000  0.375000  0.000000      2.000000
  0.250000  0.375000  0.000000      2.000000
  0.375000  0.375000  0.000000      2.000000
  0.500000  0.375000  0.000000      2.000000
 -0.375000  0.375000  0.000000      2.000000
 -0.250000  0.375000  0.000000      2.000000
 -0.125000  0.375000  0.000000      2.000000
  0.000000  0.500000  0.000000      1.000000
  0.125000  0.500000  0.000000      2.000000
  0.250000  0.500000  0.000000      2.000000
  0.375000  0.500000  0.000000      2.000000
  0.500000  0.500000  0.000000      1.000000

 Following cartesian coordinates:
            Coordinates               Weight
  0.000000  0.000000  0.000000      1.000000
  0.007209  0.012401  0.000000      2.000000
  0.014418  0.024802  0.000000      2.000000
  0.021626  0.037202  0.000000      2.000000
  0.028835  0.049603  0.000000      1.000000
 -0.007209  0.012401  0.000000      2.000000
  0.000000  0.024802  0.000000      2.000000
  0.007209  0.037202  0.000000      2.000000
  0.014418  0.049603  0.000000      2.000000
  0.021626  0.062004  0.000000      2.000000
 -0.028835 -0.024802  0.000000      2.000000
 -0.021626 -0.012401  0.000000      2.000000
 -0.014418  0.000000  0.000000      2.000000
 -0.014418  0.024802  0.000000      2.000000
 -0.007209  0.037202  0.000000      2.000000
  0.000000  0.049603  0.000000      2.000000
  0.007209  0.062004  0.000000      2.000000
  0.014418  0.074405  0.000000      2.000000
 -0.036044 -0.012401  0.000000      2.000000
 -0.028835  0.000000  0.000000      2.000000
 -0.021626  0.012401  0.000000      2.000000
 -0.021626  0.037202  0.000000      2.000000
 -0.014418  0.049603  0.000000      2.000000
 -0.007209  0.062004  0.000000      2.000000
  0.000000  0.074405  0.000000      2.000000
  0.007209  0.086806  0.000000      2.000000
 -0.043253  0.000000  0.000000      2.000000
 -0.036044  0.012401  0.000000      2.000000
 -0.028835  0.024802  0.000000      2.000000
 -0.028835  0.049603  0.000000      1.000000
 -0.021626  0.062004  0.000000      2.000000
 -0.014418  0.074405  0.000000      2.000000
 -0.007209  0.086806  0.000000      2.000000
  0.000000  0.099206  0.000000      1.000000

 I would recommend the setting:
   dimension x,y,z NGX =    41 NGY =   41 NGZ =  123
 SYSTEM =  unknown system
 POSCAR =  crystal structure from VMoWS2 with Hexag

 Startparameter for this run:
   NWRITE =      2    write-flag & timer
   PREC   = normal    normal or accurate (medium, high low for compatibility)
   ISTART =      0    job   : 0-new  1-cont  2-samecut
   ICHARG =      2    charge: 1-file 2-atom 10-const
   ISPIN  =      1    spin polarized calculation?
   LNONCOLLINEAR =      F non collinear calculations
   LSORBIT =      F    spin-orbit coupling
   INIWAV =      1    electr: 0-lowe 1-rand  2-diag
   LASPH  =      F    aspherical Exc in radial PAW
   METAGGA=      F    non-selfconsistent MetaGGA calc.

 Electronic Relaxation 1
   ENCUT  =  280.0 eV  20.58 Ry    4.54 a.u.  13.68 13.68 40.93*2*pi/ulx,y,z
   ENINI  =  280.0     initial cutoff
   ENAUG  =  373.4 eV  augmentation charge cutoff
   NELM   =     60;   NELMIN=  2; NELMDL= -5     # of ELM steps
   EDIFF  = 0.1E-03   stopping-criterion for ELM
   LREAL  =      F    real-space projection
   NLSPLINE    = F    spline interpolate recip. space projectors
   LCOMPAT=      F    compatible to vasp.4.4
   GGA_COMPAT  = T    GGA compatible to vasp.4.4-vasp.4.6
   LMAXPAW     = -100 max onsite density
   LMAXMIX     =    2 max onsite mixed and CHGCAR
   VOSKOWN=      0    Vosko Wilk Nusair interpolation
   ROPT   =    0.00000   0.00000   0.00000   0.00000
 Ionic relaxation
   EDIFFG = 0.1E-02   stopping-criterion for IOM
   NSW    =    100    number of steps for IOM
   NBLOCK =      1;   KBLOCK =    100    inner block; outer block
   IBRION =      1    ionic relax: 0-MD 1-quasi-New 2-CG
   NFREE  =      0    steps in history (QN), initial steepest desc. (CG)
   ISIF   =      3    stress and relaxation
   IWAVPR =     11    prediction:  0-non 1-charg 2-wave 3-comb
   ISYM   =      0    0-nonsym 1-usesym 2-fastsym
   LCORR  =      T    Harris-Foulkes like correction to forces

   POTIM  = 0.5000    time-step for ionic-motion
   TEIN   =    0.0    initial temperature
   TEBEG  =    0.0;   TEEND  =   0.0 temperature during run
   SMASS  =  -3.00    Nose mass-parameter (am)
   estimated Nose-frequenzy (Omega)   =  0.10E-29 period in steps =****** mass=  -0.230E-26a.u.
   SCALEE = 1.0000    scale energy and forces
   NPACO  =    256;   APACO  = 16.0  distance and # of slots for P.C.
   PSTRESS=    0.0 pullay stress

  Mass of Ions in am
   POMASS =  50.94 95.94183.85 32.07
  Ionic Valenz
   ZVAL   =   5.00  6.00  6.00  6.00
  Atomic Wigner-Seitz radii
  virtual crystal weights
   VCA    =   1.00  1.00  1.00  1.00
   NELECT =     159.0000    total number of electrons
   NUPDOWN=      -1.0000    fix difference up-down

 DOS related values:
   EMIN   =  10.00;   EMAX   =-10.00  energy-range for DOS
   EFERMI =   0.00
   ISMEAR =     0;   SIGMA  =   0.20  broadening in eV -4-tet -1-fermi 0-gaus

 Electronic relaxation 2 (details)
   IALGO  =     38    algorithm
   LDIAG  =      T    sub-space diagonalisation (order eigenvalues)
   LSUBROT=      F    optimize rotation matrix (better conditioning)
   TURBO    =      0    0=normal 1=particle mesh
   IRESTART =      0    0=no restart 2=restart with 2 vectors
   NREBOOT  =      0    no. of reboots
   NMIN     =      0    reboot dimension
   EREF     =   0.00    reference energy to select bands
   IMIX   =      4    mixing-type and parameters
[...]
     -2.89000      5.04000      0.00000         0.002376     -0.010174     -0.000117
      5.78000      6.72000      0.00000         0.002770     -0.006045      0.000061
      2.89000      1.68000      0.00000        -0.000893     -0.008530      0.000024
      0.00000      6.72000      0.00000        -0.001955     -0.010551      0.000063
     -0.96900      1.67900     28.66200         0.382241      0.722293     -2.166325
      0.96900      1.67900      1.33800        -0.382264      0.722464      2.165756
     -3.85900      3.35900     28.66200        -0.686593     -0.144245     -2.118133
     -1.92100      3.35900      1.33800         0.688266     -0.144197      2.117341
     -6.74900      5.03900     28.66200         0.620987     -0.573991     -2.156341
     -4.81100      5.03900      1.33800        -0.621130     -0.574119      2.155348
      1.92100      3.35900     28.66200        -0.688373     -0.144429     -2.117231
      3.85900      3.35900      1.33800         0.685969     -0.144117      2.118923
     -0.96900      5.03900     28.66200         0.622284     -0.575381     -2.154731
      0.96900      5.03900      1.33800        -0.622396     -0.575163      2.155033
     -3.85900      6.71900     28.66200         0.381292      0.720515     -2.166512
     -1.92100      6.71900      1.33800        -0.381225      0.720613      2.167117
      4.81100      5.03900     28.66200         0.621344     -0.572995     -2.155256
      6.74900      5.03900      1.33800        -0.621161     -0.573173      2.155777
      1.92100      6.71900     28.66200         0.380966      0.721226     -2.166432
      3.85900      6.71900      1.33800        -0.380937      0.721231      2.166360
     -0.96900      8.39900     28.66200        -0.685769     -0.143881     -2.118683
      0.96900      8.39900      1.33800         0.686383     -0.144177      2.117648
    total drift:                               -0.000008     -0.000333      0.000231

  FREE ENERGIE OF THE ION-ELECTRON SYSTEM (eV)
  free  energy   TOTEN  =      -186.97327091 eV

  energy  without entropy=     -186.62853252  energy(sigma->0) =     -186.80090172

 Quasi-Newton relaxation of ions (Broydens 2nd method)
  g(Force)  = 0.454E+01   g(Stress)= 0.359E+00

 Reset! Starting new Quasi-Newton update for ions

[...]

 d Force = 0.2269841E+01[-0.143E-01, 0.455E+01]  d Energy = 0.1695933E+01 0.574E+00
 d Force = 0.9525354E+03[ 0.934E+03, 0.971E+03]  d Ewald  = 0.2522534E+04-0.157E+04

[...]

 retain information from N=  1 steps
 eigenvalues of (default step * inverse Hessian matrix)
  average eigenvalue of G=   0.2444
 eigenvalue spectrum of G is  0.2444

[...]

 d Force = 0.1992907E-02[-0.266E-03, 0.425E-02]  d Energy = 0.1060243E+01-0.106E+01
 d Force =-0.2159318E+01[-0.221E+01,-0.210E+01]  d Ewald  =-0.1918953E+04 0.192E+04

[...]

 d Force = 0.3260123E+00[ 0.261E+00, 0.391E+00]  d Energy = 0.8553428E+00-0.529E+00
 d Force = 0.4142208E+03[ 0.424E+03, 0.405E+03]  d Ewald  =-0.1541687E+04 0.196E+04

[...]

 d Force = 0.2536692E-02[ 0.690E-03, 0.438E-02]  d Energy = 0.3767319E-02-0.123E-02
 d Force = 0.5573724E+02[ 0.559E+02, 0.556E+02]  d Ewald  =-0.1637671E+03 0.220E+03

[...]

 FEWALD executed in parallel

[...]

 eigenvalue-minimisations  : 11160
 total energy-change (2. order) :-0.4268791E-03  (-0.2651463E-03)
 number of electron     159.0000111 magnetization
 augmentation part       -4.1214077 magnetization

[...]

 Broyden mixing:
  rms(total) = 0.47295E-02    rms(broyden)= 0.47184E-02
  rms(prec ) = 0.51824E-02
  weight for this iteration     100.00

 eigenvalues of (default mixing * dielectric matrix)
  average eigenvalue GAMMA=   0.6460
  1.1025  0.1894

[...]

----------------------------------------- Iteration    7(   4)  ---------------------------------------

 eigenvalue-minimisations  :  5800
 total energy-change (2. order) : 0.9584076E-05  (-0.1280271E-04)
 number of electron     159.0000110 magnetization
 augmentation part       -4.1589136 magnetization

 Free energy of the ion-electron system (eV)
  alpha Z        PSCENC =        90.72693210
  Ewald energy   TEWEN  =     44894.27728575
  -Hartree energ DENC   =    -50907.96432766
  -exchange      EXHF   =         0.00000000
  -V(xc)+E(xc)   XCENC  =      -233.31239388
  PAW double counting   =      4079.06881061    -3494.89344377
  entropy T*S    EENTRO =        -0.15478885
  eigenvalues    EBANDS =     -1380.23819623
  atomic energy  EATOM  =      6761.44252427
  Solvation  Ediel_sol  =         0.00000000
  free energy    TOTEN  =      -191.04759766 eV

  energy without entropy =     -190.89280881  energy(sigma->0) =     -190.97020324

 average (electrostatic) potential at core
  the test charge radii are     1.2064  1.2296  1.1823  0.9698
  (the norm of the test charge is              1.0000)
       1 -49.6070       2 -49.6069       3 -49.6110       4 -47.0827       5 -47.0798
       6 -47.0811       7 -49.5068       8 -49.5070       9 -49.5069      10 -94.9560
      11 -94.9558      12 -94.9559      13 -94.9553      14 -94.9581      15 -94.9590
      16 -94.9551      17 -94.9561      18 -94.9572      19 -94.9572      20 -94.9576
      21 -94.9570      22 -94.9590      23 -94.9581      24 -94.9566      25 -94.9575
      26 -94.9572      27 -94.9568

 E-fermi :  -2.9839     XC(G=0):  -2.5884     alpha+bet : -2.3996

[...]

 k-point    34 :       0.5000    0.5000    0.0000
  band No.  band energies     occupation
      1     -17.4169      2.00000
      2     -17.4162      2.00000
      3     -16.7667      2.00000
      4     -16.6125      2.00000
      5     -16.4662      2.00000
      6     -16.4649      2.00000
      7     -16.2917      2.00000
      8     -16.0331      2.00000
      9     -16.0301      2.00000
     10     -15.9901      2.00000
     11     -15.9893      2.00000
     12     -15.8610      2.00000
     13     -15.8602      2.00000
     14     -15.6673      2.00000
     15     -15.6665      2.00000
     16     -15.5975      2.00000
     17     -15.5974      2.00000
     18     -15.4675      2.00000
     19      -9.7911      2.00000
     20      -9.2262      2.00000
     21      -9.2261      2.00000
     22      -9.0329      2.00000
     23      -9.0324      2.00000
     24      -8.7026      2.00000
     25      -8.7018      2.00000
     26      -8.4346      2.00000
     27      -8.3388      2.00000
     28      -8.3382      2.00000
     29      -8.2579      2.00000
     30      -8.2577      2.00000
     31      -8.1494      2.00000
     32      -8.0212      2.00000
     33      -7.8633      2.00000
     34      -7.6897      2.00000
     35      -7.6351      2.00000
     36      -7.6329      2.00000
     37      -7.6167      2.00000
     38      -7.4940      2.00000
     39      -7.2084      2.00000
     40      -7.2074      2.00000
     41      -7.1761      2.00000
     42      -7.0764      2.00000
     43      -7.0754      2.00000
     44      -6.8466      2.00000
     45      -6.8460      2.00000
     46      -6.7214      2.00000
     47      -6.7210      2.00000
     48      -6.6810      2.00000
     49      -6.4613      2.00000
     50      -6.4609      2.00000
     51      -6.3348      2.00000
     52      -6.3342      2.00000
     53      -6.2602      2.00000
     54      -6.2138      2.00000
     55      -6.0965      2.00000
     56      -6.0961      2.00000
     57      -5.9536      2.00000
     58      -5.8121      2.00000
     59      -5.8064      2.00000
     60      -5.8062      2.00000
[...]
    106      -0.2298      0.00000
    107      -0.2288      0.00000
    108      -0.2110      0.00000
    109       0.2963      0.00000
    110       0.2970      0.00000
    111       0.5707      0.00000
    112       1.1755      0.00000
    113       1.2510      0.00000
    114       1.2516      0.00000
    115       1.4406      0.00000
    116       1.5334      0.00000
    117       1.5348      0.00000
    118       2.2548      0.00000
    119       2.2549      0.00000
    120       2.3748      0.00000

 soft charge-density along one line, spin component           1
         0         1         2         3         4         5         6         7         8         9
 total charge-density along one line

------------------------ aborting loop because EDIFF is reached ----------------------------------------

  FORCE on cell =-STRESS in cart. coord.  units (eV):
  Direction    XX          YY          ZZ          XY          YZ          ZX
  Alpha Z    90.72693    90.72693    90.72693
  Ewald   49882.84236 49882.72975-54871.31313     0.00073     0.00131    -0.11033
  Hartree 50589.99645 50589.97123-50270.72663     0.00023     0.00034    -0.02176
  E(xc)    -609.21060  -609.20421  -618.60951    -0.00004    -0.00003     0.00293
  Local  ************************102577.51819    -0.00123    -0.00179     0.14785
  n-local  1208.44709  1208.40427  1257.35295     0.00004     0.00005    -0.00225
  augment  -212.07947  -212.06009  -215.17715    -0.00002    -0.00008     0.00623
  Kinetic  2015.63416  2015.59907  2048.59087     0.00039     0.00014    -0.03476
  Fock        0.00000     0.00000     0.00000     0.00000     0.00000     0.00000
  Total       0.20506     0.21419    -1.63749     0.00010    -0.00006    -0.01208
  in kB       0.13923     0.14543    -1.11183     0.00007    -0.00004    -0.00820

 VOLUME and BASIS-vectors are now :
  energy-cutoff  :      280.00
  volume of cell :     2359.67
      direct lattice vectors                 reciprocal lattice vectors
     8.253078456  4.765222863  0.000000000     0.060583497  0.104926813  0.000000000
    -8.253083921  4.765232722  0.000000000    -0.060583371  0.104926744  0.000000000
     0.000000000  0.000000000 30.000000000     0.000000000  0.000000000  0.033333333

  length of vectors
     9.529987038  9.529996700 30.000000000     0.121161034  0.121160911  0.033333333

 FORCES acting on ions
    electron-ion (+dipol)            ewald-force                    non-local-force                 convergence-correction
   -.233E-01 0.672E-01 -.676E-02   0.274E-01 -.571E-01 0.529E-02   0.223E-03 0.156E-02 0.173E-03   -.392E-02 -.945E-02 0.144E-02
   -.127E-02 0.987E-01 0.221E-01   0.803E-02 -.107E+00 -.217E-01   0.600E-03 -.145E-03 0.842E-03   -.657E-02 0.863E-02 -.138E-02
   0.221E-01 0.717E-01 -.160E-01   -.329E-01 -.732E-01 0.170E-01   -.768E-03 0.460E-03 -.118E-02   0.104E-01 0.184E-02 0.120E-03
   0.171E+00 0.103E+00 -.509E-02   -.111E+00 -.103E+00 0.513E-02   0.185E-02 -.209E-02 -.533E-03   -.569E-01 0.398E-02 -.482E-05
   -.388E-01 -.134E+00 -.125E-01   0.598E-02 0.865E-01 0.130E-01   -.159E-02 -.240E-02 -.876E-03   0.318E-01 0.472E-01 0.852E-05
   -.129E+00 0.156E+00 0.148E-01   0.102E+00 -.100E+00 -.156E-01   -.245E-03 0.824E-03 0.116E-02   0.250E-01 -.511E-01 0.186E-03
   -.105E+00 -.210E+00 0.149E-02   0.651E-01 0.155E+00 -.168E-02   -.190E-02 -.112E-02 0.997E-06   0.369E-01 0.490E-01 0.824E-04
   0.162E+00 -.189E+00 -.681E-03   -.934E-01 0.198E+00 0.597E-03   0.253E-02 0.285E-02 -.247E-04   -.642E-01 -.137E-01 0.380E-04
   -.576E-01 0.822E-01 -.268E-03   0.291E-01 -.465E-01 0.314E-03   -.613E-03 0.508E-04 -.119E-03   0.273E-01 -.366E-01 0.236E-04
   -.699E+00 0.136E+01 0.579E+03   0.772E+00 -.112E+01 -.583E+03   -.105E+00 -.283E+00 0.430E+01   0.293E-01 0.278E-01 0.447E-01
   0.677E+00 0.136E+01 -.579E+03   -.755E+00 -.110E+01 0.583E+03   0.104E+00 -.282E+00 -.430E+01   -.241E-01 0.147E-01 -.463E-01
   -.110E+01 -.123E+01 0.579E+03   0.775E+00 0.118E+01 -.583E+03   0.302E+00 0.498E-01 0.430E+01   0.274E-01 0.328E-02 0.469E-02
   0.915E+00 -.125E+01 -.578E+03   -.649E+00 0.120E+01 0.583E+03   -.308E+00 0.502E-01 -.430E+01   0.337E-01 -.155E-02 -.383E-01
   0.169E+01 -.292E+00 0.579E+03   -.147E+01 0.462E-01 -.583E+03   -.200E+00 0.231E+00 0.429E+01   -.269E-01 0.222E-01 0.147E-01
   -.163E+01 -.207E+00 -.579E+03   0.143E+01 -.185E-01 0.583E+03   0.202E+00 0.231E+00 -.430E+01   -.104E-02 0.183E-02 -.244E-02
   -.901E+00 -.125E+01 0.578E+03   0.652E+00 0.121E+01 -.583E+03   0.308E+00 0.497E-01 0.431E+01   -.505E-01 -.793E-02 0.310E-01
   0.118E+01 -.124E+01 -.579E+03   -.798E+00 0.120E+01 0.583E+03   -.303E+00 0.496E-01 -.431E+01   -.828E-01 -.508E-02 0.420E-01
   0.155E+01 -.114E+00 0.579E+03   -.137E+01 -.751E-01 -.583E+03   -.202E+00 0.237E+00 0.430E+01   0.195E-01 -.403E-01 0.355E-01
   -.158E+01 -.124E+00 -.579E+03   0.141E+01 -.750E-01 0.583E+03   0.202E+00 0.236E+00 -.430E+01   -.220E-01 -.293E-01 -.330E-01
   -.578E+00 0.150E+01 0.579E+03   0.713E+00 -.116E+01 -.583E+03   -.102E+00 -.279E+00 0.431E+01   -.363E-01 -.676E-01 -.387E-01
   0.553E+00 0.159E+01 -.579E+03   -.697E+00 -.124E+01 0.583E+03   0.101E+00 -.280E+00 -.430E+01   0.444E-01 -.723E-01 0.354E-01
   0.167E+01 -.275E+00 0.579E+03   -.145E+01 -.143E-01 -.583E+03   -.201E+00 0.231E+00 0.430E+01   -.282E-01 0.648E-01 -.425E-01
   -.171E+01 -.348E+00 -.579E+03   0.145E+01 0.492E-01 0.583E+03   0.199E+00 0.232E+00 -.430E+01   0.586E-01 0.743E-01 0.279E-01
   -.582E+00 0.153E+01 0.579E+03   0.698E+00 -.125E+01 -.583E+03   -.101E+00 -.279E+00 0.430E+01   -.175E-01 -.141E-01 0.141E-02
   0.630E+00 0.144E+01 -.579E+03   -.733E+00 -.117E+01 0.583E+03   0.102E+00 -.279E+00 -.430E+01   0.408E-02 0.358E-02 0.368E-02
   -.110E+01 -.126E+01 0.579E+03   0.719E+00 0.120E+01 -.583E+03   0.302E+00 0.499E-01 0.430E+01   0.826E-01 0.113E-01 -.300E-01
   0.100E+01 -.124E+01 -.579E+03   -.700E+00 0.118E+01 0.583E+03   -.303E+00 0.495E-01 -.430E+01   -.105E-01 0.134E-01 -.930E-02
   0.816E-03 -.118E-01 -.145E-02   0.466E-13 -.273E-13 -.114E-12   -.578E-03 0.141E-01 0.580E-03   -.184E-03 -.964E-03 0.887E-03

 POSITION                                       TOTAL-FORCE (eV/Angst)
     -0.00018      3.17713      0.00003         0.000425      0.002172      0.000139
     -5.50203      3.17732     -0.00009         0.000780     -0.000183     -0.000204
      5.50218      3.17712      0.00007        -0.001113      0.000792     -0.000117
      2.75172      4.76549      0.00003         0.005162      0.001236     -0.000502
     -0.00003     -0.00098      0.00005        -0.002648     -0.003074     -0.000410
     -2.75167      4.76543     -0.00007        -0.002427      0.005733      0.000598
      5.50157      6.35155     -0.00000        -0.004780     -0.007411     -0.000114
      2.75166      1.58604      0.00000         0.006417     -0.001580     -0.000071
     -0.00016      6.35265      0.00000        -0.001756     -0.000869     -0.000051
     -0.89985      1.63537     28.45195        -0.001975     -0.008627      0.000025
      0.89986      1.63538      1.54799         0.002218     -0.008786     -0.000582
     -3.71782      3.16724     28.45172         0.009133      0.001100      0.003605
     -1.78450      3.16724      1.54801        -0.009097      0.001709     -0.003648
     -6.38662      4.72559     28.45117        -0.005389      0.007468     -0.000597
     -4.61752      4.72554      1.54921         0.005266      0.007496      0.000712
      1.78450      3.16720     28.45208         0.008872      0.001443      0.004339
      3.71785      3.16721      1.54823        -0.007627      0.000894     -0.004923
     -0.88472      4.72581     28.45136        -0.005022      0.007743      0.000633
      0.88469      4.72582      1.54860         0.005012      0.007828     -0.002092
     -3.65070      6.40092     28.45132        -0.002204     -0.007360      0.001270
     -1.85132      6.40084      1.54844         0.001640     -0.007244     -0.002144
      4.61758      4.72553     28.45085        -0.004334      0.006698      0.001377
      6.38658      4.72558      1.54878         0.004460      0.006442      0.000139
      1.85126      6.40085     28.45160        -0.002480     -0.008348      0.002692
      3.65074      6.40092      1.54871         0.002753     -0.008213     -0.001126
     -0.96691      7.93244     28.45154         0.007779      0.001519      0.001524
      0.96687      7.93241      1.54841        -0.009063      0.001421     -0.000472
    total drift:                                0.000054      0.001311      0.000021

  FREE ENERGIE OF THE ION-ELECTRON SYSTEM (eV)
  free  energy   TOTEN  =      -191.04759766 eV

  energy  without entropy=     -190.89280881  energy(sigma->0) =     -190.97020324

 d Force = 0.2012472E-03[ 0.136E-03, 0.266E-03]  d Energy = 0.2855353E-03-0.843E-04
 d Force =-0.3821405E+01[-0.382E+01,-0.382E+01]  d Ewald  = 0.3218186E+02-0.360E+02

 Quasi-Newton relaxation of ions (Broydens 2nd method)
  g(Force)  = 0.801E-04   g(Stress)= 0.157E-03

 retain information from N=  1 steps
 eigenvalues of (default step * inverse Hessian matrix)
  average eigenvalue of G=   3.8654
 eigenvalue spectrum of G is  3.8654

 reached required accuracy - stopping structural energy minimisation