 vasp.5.4.1 05Feb16 (build Jul 05 2020 17:13:04) complex

 executed on           IFC91_ompi date 2024.08.20  23:57:28

 INCAR:
 POTCAR:   PAW_PBE V 08Apr2002
 POTCAR:   PAW_PBE Mo 08Apr2002
 POTCAR:   PAW_PBE W 08Apr2002
 POTCAR:    PAW_PBE S 17Jan2003

 POTCAR:   PAW_PBE V 08Apr2002
   VRHFIN =V: p6 d4 s1

   TITEL  = PAW_PBE V 08Apr2002
   POMASS =   50.941; ZVAL   =    5.000    mass and valenz
   ENMAX  =  192.543; ENMIN  =  144.408 eV
   QCUT   =   -3.762; QGAM   =    7.524    optimization parameters

   Description
     l     E      TYP  RCUT    TYP  RCUT
     2   .000     23  2.700
     2   .000     23  2.700
     0   .000     23  2.700
     0  2.000     23  2.700
     1   .000     23  2.700
     1  2.000     23  2.700
     3   .000      7   .000

 POTCAR:   PAW_PBE Mo 08Apr2002
   VRHFIN =Mo: 4p5s4d

[...]

 POTCAR:   PAW_PBE W 08Apr2002
   VRHFIN =W : 6s5d

   TITEL  = PAW_PBE W 08Apr2002
   POMASS =  183.850; ZVAL   =    6.000    mass and valenz
   ENMAX  =  223.057; ENMIN  =  167.293 eV
   QCUT   =   -4.049; QGAM   =    8.098    optimization parameters

[...]

 POTCAR:    PAW_PBE S 17Jan2003
   VRHFIN =S : s2p4

   TITEL  = PAW_PBE S 17Jan2003
   POMASS =   32.066; ZVAL   =    6.000    mass and valenz
   ENMAX  =  280.000; ENMIN  =  194.016 eV
   QCUT   =   -4.360; QGAM   =    8.721    optimization parameters

   Description
     l     E      TYP  RCUT    TYP  RCUT
     0   .000     23  1.900
     0   .000     23  1.900
     1   .000     23  1.900
     1   .000     23  1.900
     2   .000     23  1.900

 PAW_PBE V 08Apr2002                    :
 PAW_PBE Mo 08Apr2002                   :
 PAW_PBE W 08Apr2002                    :
  PAW_PBE S 17Jan2003                   :

 POSCAR: crystal structure from VMoWS2 with Hexag
  positions in cartesian coordinates
 exchange correlation table for  LEXCH =        8
   RHO(1)=    0.500       N(1)  =     2000
   RHO(2)=  100.500       N(2)  =     4000

 ion  position               nearest neighbor table
   1  0.333  0.333  0.000-  13 2.34  16 2.34  19 2.36  18 2.36  11 2.36  10 2.36
   2  1.000  0.333  0.000-  25 2.34  10 2.34  13 2.36  12 2.36  22 2.36  23 2.36
   3  0.667  0.333  0.000-  19 2.34  22 2.34  25 2.36  24 2.36  17 2.36  16 2.36
   4  0.000  0.667  0.000-  27 2.34  12 2.34  14 2.36  15 2.36  24 2.36  25 2.36   6 3.34   7 3.34
                             5 3.34   8 3.36
   5  0.333  0.667  0.000-  15 2.34  18 2.34  20 2.36  21 2.36  13 2.36  12 2.36   8 3.34   4 3.34
                             6 3.34   9 3.36
   6  0.667  0.667  0.000-  21 2.34  24 2.34  27 2.36  26 2.36  19 2.36  18 2.36   4 3.34   9 3.34
                             5 3.34   7 3.36
   7  0.000  0.000  0.000-  23 2.34  14 2.34  11 2.36  10 2.36  27 2.36  26 2.36   9 3.34   4 3.34
                             8 3.34   6 3.36
   8  0.333  0.000  0.000-  11 2.34  20 2.34  17 2.36  16 2.36  15 2.36  14 2.36   5 3.34   9 3.34
                             7 3.34   4 3.36
   9  0.667  0.000  0.000-  17 2.34  26 2.34  23 2.36  22 2.36  21 2.36  20 2.36   7 3.34   6 3.34
                             8 3.34   5 3.36
  10  0.111  0.222  0.955-   2 2.34   7 2.36   1 2.36
  11  0.222  0.111  0.045-   8 2.34   7 2.36   1 2.36
  12  0.111  0.556  0.955-   4 2.34   2 2.36   5 2.36
  13  0.222  0.444  0.045-   1 2.34   2 2.36   5 2.36
  14  0.111  0.889  0.955-   7 2.34   4 2.36   8 2.36
  15  0.222  0.777  0.045-   5 2.34   4 2.36   8 2.36
  16  0.444  0.222  0.955-   1 2.34   8 2.36   3 2.36
  17  0.556  0.111  0.045-   9 2.34   8 2.36   3 2.36
  18  0.444  0.556  0.955-   5 2.34   1 2.36   6 2.36
  19  0.556  0.444  0.045-   3 2.34   1 2.36   6 2.36
  20  0.444  0.889  0.955-   8 2.34   5 2.36   9 2.36
  21  0.556  0.777  0.045-   6 2.34   5 2.36   9 2.36
  22  0.777  0.222  0.955-   3 2.34   9 2.36   2 2.36
  23  0.889  0.111  0.045-   7 2.34   9 2.36   2 2.36
  24  0.777  0.556  0.955-   6 2.34   3 2.36   4 2.36
  25  0.889  0.444  0.045-   2 2.34   3 2.36   4 2.36
  26  0.777  0.889  0.955-   9 2.34   6 2.36   7 2.36
  27  0.889  0.777  0.045-   4 2.34   6 2.36   7 2.36

IMPORTANT INFORMATION: All symmetrisations will be switched off!
NOSYMM: (Re-)initialisation of all symmetry stuff for point group C_1.

 KPOINTS: K-POINTS 	#supercell of CrS2 in hexagona

Automatic generation of k-mesh.
Space group operators:
 irot       det(A)        alpha          n_x          n_y          n_z        tau_x        tau_y        tau_z
    1     1.000000     0.000000     1.000000     0.000000     0.000000     0.000000     0.000000     0.000000

 Subroutine IBZKPT returns following result:

 Found     34 irreducible k-points:

 Following reciprocal coordinates:
            Coordinates               Weight
  0.000000  0.000000  0.000000      1.000000
  0.125000  0.000000  0.000000      2.000000
  0.250000  0.000000  0.000000      2.000000
  0.375000  0.000000  0.000000      2.000000
  0.500000  0.000000  0.000000      1.000000
  0.000000  0.125000  0.000000      2.000000
  0.125000  0.125000  0.000000      2.000000
  0.250000  0.125000  0.000000      2.000000
  0.375000  0.125000  0.000000      2.000000
  0.500000  0.125000  0.000000      2.000000
 -0.375000  0.125000  0.000000      2.000000
 -0.250000  0.125000  0.000000      2.000000
 -0.125000  0.125000  0.000000      2.000000
  0.000000  0.250000  0.000000      2.000000
  0.125000  0.250000  0.000000      2.000000
  0.250000  0.250000  0.000000      2.000000
  0.375000  0.250000  0.000000      2.000000
  0.500000  0.250000  0.000000      2.000000
 -0.375000  0.250000  0.000000      2.000000
 -0.250000  0.250000  0.000000      2.000000
 -0.125000  0.250000  0.000000      2.000000
 -0.000000  0.375000  0.000000      2.000000
  0.125000  0.375000  0.000000      2.000000
  0.250000  0.375000  0.000000      2.000000
  0.375000  0.375000  0.000000      2.000000
  0.500000  0.375000  0.000000      2.000000
 -0.375000  0.375000  0.000000      2.000000
 -0.250000  0.375000  0.000000      2.000000
 -0.125000  0.375000  0.000000      2.000000
  0.000000  0.500000  0.000000      1.000000
  0.125000  0.500000  0.000000      2.000000
  0.250000  0.500000  0.000000      2.000000
  0.375000  0.500000  0.000000      2.000000
  0.500000  0.500000  0.000000      1.000000

 Following cartesian coordinates:
            Coordinates               Weight
  0.000000  0.000000  0.000000      1.000000
  0.007209  0.012401  0.000000      2.000000
  0.014418  0.024802  0.000000      2.000000
  0.021626  0.037202  0.000000      2.000000
  0.028835  0.049603  0.000000      1.000000
 -0.007209  0.012401  0.000000      2.000000
  0.000000  0.024802  0.000000      2.000000
  0.007209  0.037202  0.000000      2.000000
  0.014418  0.049603  0.000000      2.000000
  0.021626  0.062004  0.000000      2.000000
 -0.028835 -0.024802  0.000000      2.000000
 -0.021626 -0.012401  0.000000      2.000000
 -0.014418  0.000000  0.000000      2.000000
 -0.014418  0.024802  0.000000      2.000000
 -0.007209  0.037202  0.000000      2.000000
  0.000000  0.049603  0.000000      2.000000
  0.007209  0.062004  0.000000      2.000000
  0.014418  0.074405  0.000000      2.000000
 -0.036044 -0.012401  0.000000      2.000000
 -0.028835  0.000000  0.000000      2.000000
 -0.021626  0.012401  0.000000      2.000000
 -0.021626  0.037202  0.000000      2.000000
 -0.014418  0.049603  0.000000      2.000000
 -0.007209  0.062004  0.000000      2.000000
  0.000000  0.074405  0.000000      2.000000
  0.007209  0.086806  0.000000      2.000000
 -0.043253  0.000000  0.000000      2.000000
 -0.036044  0.012401  0.000000      2.000000
 -0.028835  0.024802  0.000000      2.000000
 -0.028835  0.049603  0.000000      1.000000
 -0.021626  0.062004  0.000000      2.000000
 -0.014418  0.074405  0.000000      2.000000
 -0.007209  0.086806  0.000000      2.000000
  0.000000  0.099206  0.000000      1.000000

 I would recommend the setting:
   dimension x,y,z NGX =    41 NGY =   41 NGZ =  123
 SYSTEM =  unknown system
 POSCAR =  crystal structure from VMoWS2 with Hexag

 Startparameter for this run:
   NWRITE =      2    write-flag & timer
   PREC   = normal    normal or accurate (medium, high low for compatibility)
   ISTART =      0    job   : 0-new  1-cont  2-samecut
   ICHARG =      2    charge: 1-file 2-atom 10-const
   ISPIN  =      1    spin polarized calculation?
   LNONCOLLINEAR =      F non collinear calculations
   LSORBIT =      F    spin-orbit coupling
   INIWAV =      1    electr: 0-lowe 1-rand  2-diag
   LASPH  =      F    aspherical Exc in radial PAW
   METAGGA=      F    non-selfconsistent MetaGGA calc.

 Electronic Relaxation 1
   ENCUT  =  280.0 eV  20.58 Ry    4.54 a.u.  13.68 13.68 40.93*2*pi/ulx,y,z
   ENINI  =  280.0     initial cutoff
   ENAUG  =  373.4 eV  augmentation charge cutoff
   NELM   =     60;   NELMIN=  2; NELMDL= -5     # of ELM steps
   EDIFF  = 0.1E-03   stopping-criterion for ELM
   LREAL  =      F    real-space projection
   NLSPLINE    = F    spline interpolate recip. space projectors
   LCOMPAT=      F    compatible to vasp.4.4
   GGA_COMPAT  = T    GGA compatible to vasp.4.4-vasp.4.6
   LMAXPAW     = -100 max onsite density
   LMAXMIX     =    2 max onsite mixed and CHGCAR
   VOSKOWN=      0    Vosko Wilk Nusair interpolation
   ROPT   =    0.00000   0.00000   0.00000   0.00000
 Ionic relaxation
   EDIFFG = 0.1E-02   stopping-criterion for IOM
   NSW    =    100    number of steps for IOM
   NBLOCK =      1;   KBLOCK =    100    inner block; outer block
   IBRION =      1    ionic relax: 0-MD 1-quasi-New 2-CG
   NFREE  =      0    steps in history (QN), initial steepest desc. (CG)
   ISIF   =      3    stress and relaxation
   IWAVPR =     11    prediction:  0-non 1-charg 2-wave 3-comb
   ISYM   =      0    0-nonsym 1-usesym 2-fastsym
   LCORR  =      T    Harris-Foulkes like correction to forces

   POTIM  = 0.5000    time-step for ionic-motion
   TEIN   =    0.0    initial temperature
   TEBEG  =    0.0;   TEEND  =   0.0 temperature during run
   SMASS  =  -3.00    Nose mass-parameter (am)
   estimated Nose-frequenzy (Omega)   =  0.10E-29 period in steps =****** mass=  -0.230E-26a.u.
   SCALEE = 1.0000    scale energy and forces
   NPACO  =    256;   APACO  = 16.0  distance and # of slots for P.C.
   PSTRESS=    0.0 pullay stress

  Mass of Ions in am
   POMASS =  50.94 95.94183.85 32.07
  Ionic Valenz
   ZVAL   =   5.00  6.00  6.00  6.00
  Atomic Wigner-Seitz radii
  virtual crystal weights
   VCA    =   1.00  1.00  1.00  1.00
   NELECT =     159.0000    total number of electrons
   NUPDOWN=      -1.0000    fix difference up-down

 DOS related values:
   EMIN   =  10.00;   EMAX   =-10.00  energy-range for DOS
   EFERMI =   0.00
   ISMEAR =     0;   SIGMA  =   0.20  broadening in eV -4-tet -1-fermi 0-gaus

 Electronic relaxation 2 (details)
   IALGO  =     38    algorithm
   LDIAG  =      T    sub-space diagonalisation (order eigenvalues)
   LSUBROT=      F    optimize rotation matrix (better conditioning)
   TURBO    =      0    0=normal 1=particle mesh
   IRESTART =      0    0=no restart 2=restart with 2 vectors
   NREBOOT  =      0    no. of reboots
   NMIN     =      0    reboot dimension
   EREF     =   0.00    reference energy to select bands
[...]
      1.92100      3.35900     28.66200        -0.240343      0.525672     -1.382126
      3.85900      3.35900      1.33800        -0.475914      0.584766      2.138307
     -0.96900      5.03900     28.66200         0.527128     -0.694144     -2.133173
      0.96900      5.03900      1.33800         0.317611     -0.658724      1.428250
     -3.85900      6.71900     28.66200         0.030104      0.177892     -2.923077
     -1.92100      6.71900      1.33800        -0.189572      0.126519      2.916135
      4.81100      5.03900     28.66200        -0.239496      0.525334     -1.382200
      6.74900      5.03900      1.33800        -0.476910      0.584390      2.138184
      1.92100      6.71900     28.66200         0.528020     -0.693021     -2.133627
      3.85900      6.71900      1.33800         0.317757     -0.657905      1.427405
     -0.96900      8.39900     28.66200         0.028455      0.178087     -2.923242
      0.96900      8.39900      1.33800        -0.187737      0.126638      2.916527
    total drift:                               -0.000507      0.001507      0.001131

  FREE ENERGIE OF THE ION-ELECTRON SYSTEM (eV)
  free  energy   TOTEN  =      -186.82704366 eV

  energy  without entropy=     -186.48182095  energy(sigma->0) =     -186.65443230

 Quasi-Newton relaxation of ions (Broydens 2nd method)
  g(Force)  = 0.475E+01   g(Stress)= 0.352E+00

 Reset! Starting new Quasi-Newton update for ions

[...]

 d Force = 0.2416047E+01[ 0.777E-01, 0.475E+01]  d Energy = 0.1845202E+01 0.571E+00
 d Force = 0.9597333E+03[ 0.942E+03, 0.977E+03]  d Ewald  = 0.2517106E+04-0.156E+04

[...]

 retain information from N=  1 steps
 eigenvalues of (default step * inverse Hessian matrix)
  average eigenvalue of G=   0.2411
 eigenvalue spectrum of G is  0.2411

[...]

 d Force = 0.3836607E-01[ 0.382E-01, 0.385E-01]  d Energy = 0.1105205E+01-0.107E+01
 d Force =-0.3256376E+01[-0.333E+01,-0.318E+01]  d Ewald  =-0.1928369E+04 0.193E+04

[...]

 d Force = 0.5055768E+00[ 0.450E+00, 0.561E+00]  d Energy = 0.1042646E+01-0.537E+00
 d Force = 0.4143522E+03[ 0.424E+03, 0.405E+03]  d Ewald  =-0.1550821E+04 0.197E+04

[...]

 d Force = 0.6961183E-01[ 0.689E-01, 0.703E-01]  d Energy = 0.7041960E-01-0.808E-03
 d Force =-0.6822480E+00[-0.649E+00,-0.715E+00]  d Ewald  = 0.3934773E+02-0.400E+02

[...]

 d Force =-0.2755635E-02[-0.137E-01, 0.818E-02]  d Energy =-0.2487377E-02-0.268E-03
 d Force =-0.2006472E+02[-0.202E+02,-0.200E+02]  d Ewald  =-0.1142672E+03 0.942E+02

[...]

 d Force = 0.8071360E-02[ 0.740E-02, 0.874E-02]  d Energy = 0.7838713E-02 0.233E-03
 d Force =-0.1169000E+02[-0.116E+02,-0.117E+02]  d Ewald  = 0.2763420E+02-0.393E+02

[...]

 d Force = 0.5338479E-02[ 0.413E-02, 0.655E-02]  d Energy = 0.5259253E-02 0.792E-04
 d Force =-0.4691664E+01[-0.456E+01,-0.482E+01]  d Ewald  =-0.1678629E+02 0.121E+02

[...]

 d Force = 0.2295895E-02[ 0.193E-02, 0.266E-02]  d Energy = 0.1899353E-02 0.397E-03
 d Force = 0.1778425E+01[ 0.183E+01, 0.173E+01]  d Ewald  =-0.1182945E+02 0.136E+02

[...]

 d Force = 0.1525407E-02[ 0.117E-02, 0.188E-02]  d Energy = 0.1291885E-02 0.234E-03
 d Force = 0.3318834E+01[ 0.335E+01, 0.329E+01]  d Ewald  = 0.5613909E+01-0.230E+01

[...]

 FEWALD executed in parallel

[...]

 eigenvalue-minimisations  : 11440
 total energy-change (2. order) :-0.2623655E-03  (-0.2913471E-03)
 number of electron     158.9999803 magnetization
 augmentation part       -4.2298500 magnetization

 Broyden mixing:
  rms(total) = 0.77620E-02    rms(broyden)= 0.77599E-02
  rms(prec ) = 0.85793E-02
  weight for this iteration     100.00

 eigenvalues of (default mixing * dielectric matrix)
  average eigenvalue GAMMA=   0.3980
  0.3980

[...]

----------------------------------------- Iteration   23(   3)  ---------------------------------------

 eigenvalue-minimisations  :  9680
 total energy-change (2. order) : 0.4123004E-04  (-0.3239734E-04)
 number of electron     158.9999803 magnetization
 augmentation part       -4.2298500 magnetization

 Free energy of the ion-electron system (eV)
  alpha Z        PSCENC =        89.52854656
  Ewald energy   TEWEN  =     44395.45323219
  -Hartree energ DENC   =    -50403.20452472
  -exchange      EXHF   =         0.00000000
  -V(xc)+E(xc)   XCENC  =      -233.51306810
  PAW double counting   =      4099.40283858    -3515.47417296
  entropy T*S    EENTRO =        -0.13992174
  eigenvalues    EBANDS =     -1385.93761845
  atomic energy  EATOM  =      6761.44252427
  Solvation  Ediel_sol  =         0.00000000
  free energy    TOTEN  =      -192.44216436 eV

  energy without entropy =     -192.30224262  energy(sigma->0) =     -192.37220349

 average (electrostatic) potential at core
  the test charge radii are     1.2064  1.2296  1.1823  0.9698
  (the norm of the test charge is              1.0000)
       1 -49.8494       2 -49.8564       3 -49.8562       4 -47.1073       5 -47.1049
       6 -47.1058       7 -49.5260       8 -49.5256       9 -49.5244      10 -94.5699
      11 -94.6862      12 -95.0750      13 -94.9796      14 -95.2239      15 -95.1822
      16 -94.5700      17 -94.6853      18 -95.0752      19 -94.9793      20 -95.2240
      21 -95.1821      22 -94.5707      23 -94.6855      24 -95.0745      25 -94.9797
      26 -95.2240      27 -95.1821

 E-fermi :  -3.2387     XC(G=0):  -2.5580     alpha+bet : -2.3679

[...]

 k-point    34 :       0.5000    0.5000    0.0000
  band No.  band energies     occupation
      1     -17.4271      2.00000
      2     -17.4269      2.00000
      3     -16.7125      2.00000
      4     -16.7122      2.00000
      5     -16.5700      2.00000
      6     -16.5696      2.00000
      7     -16.2138      2.00000
      8     -16.1942      2.00000
      9     -16.1699      2.00000
     10     -16.1695      2.00000
     11     -15.7948      2.00000
     12     -15.7572      2.00000
     13     -15.7569      2.00000
     14     -15.6796      2.00000
     15     -15.4907      2.00000
     16     -15.4904      2.00000
     17     -15.4561      2.00000
     18     -15.2653      2.00000
     19      -9.8278      2.00000
     20      -9.4016      2.00000
     21      -9.1922      2.00000
     22      -9.1920      2.00000
     23      -8.7681      2.00000
     24      -8.7679      2.00000
     25      -8.7453      2.00000
     26      -8.5589      2.00000
     27      -8.5583      2.00000
     28      -8.3758      2.00000
     29      -8.1534      2.00000
     30      -8.0820      2.00000
     31      -8.0774      2.00000
     32      -8.0772      2.00000
     33      -7.7865      2.00000
     34      -7.7850      2.00000
     35      -7.7268      2.00000
     36      -7.7088      2.00000
     37      -7.7082      2.00000
     38      -7.5213      2.00000
     39      -7.5205      2.00000
     40      -7.4280      2.00000
     41      -7.0399      2.00000
     42      -7.0100      2.00000
     43      -7.0094      2.00000
     44      -6.8555      2.00000
     45      -6.7453      2.00000
     46      -6.7444      2.00000
     47      -6.6387      2.00000
     48      -6.5744      2.00000
     49      -6.5740      2.00000
     50      -6.5634      2.00000
     51      -6.3559      2.00000
     52      -6.3094      2.00000
     53      -6.3088      2.00000
     54      -6.2611      2.00000
     55      -6.0778      2.00000
     56      -6.0770      2.00000
     57      -5.9845      2.00000
     58      -5.8611      2.00000
     59      -5.8610      2.00000
     60      -5.7270      2.00000
[...]
    106      -0.2859      0.00000
    107      -0.2843      0.00000
    108      -0.0651      0.00000
    109      -0.0645      0.00000
    110       0.2553      0.00000
    111       0.3826      0.00000
    112       0.5233      0.00000
    113       0.5235      0.00000
    114       1.0709      0.00000
    115       1.0716      0.00000
    116       1.0741      0.00000
    117       1.8441      0.00000
    118       2.2632      0.00000
    119       2.2633      0.00000
    120       2.4149      0.00000

 soft charge-density along one line, spin component           1
         0         1         2         3         4         5         6         7         8         9
 total charge-density along one line

------------------------ aborting loop because EDIFF is reached ----------------------------------------

  FORCE on cell =-STRESS in cart. coord.  units (eV):
  Direction    XX          YY          ZZ          XY          YZ          ZX
  Alpha Z    89.52855    89.52855    89.52855
  Ewald   49358.62137 49307.23288-54270.41791    44.42958   -20.48920    11.75635
  Hartree 50062.88662 50030.48065-49691.17171    28.03738   -12.22505     7.04274
  E(xc)    -609.70943  -610.77237  -617.79008     0.92252     0.95293    -0.54925
  Local  ************************101399.29936   -65.42492    41.40715   -23.81445
  n-local  1213.95381  1216.10955  1248.40318    -1.90508     2.85790    -1.66096
  augment  -213.43445  -213.08476  -214.90987    -0.29252    -0.53837     0.31573
  Kinetic  2008.62474  2015.35497  2054.89137    -5.84142   -11.82683     6.82997
  Fock        0.00000     0.00000     0.00000     0.00000     0.00000     0.00000
  Total      -0.11283    -0.02688    -2.16713    -0.07447     0.13853    -0.07987
  in kB      -0.07560    -0.01801    -1.45201    -0.04989     0.09282    -0.05352

 VOLUME and BASIS-vectors are now :
  energy-cutoff  :      280.00
  volume of cell :     2391.25
      direct lattice vectors                 reciprocal lattice vectors
     8.282799607  4.782487501  0.000000000     0.060549136  0.104231039  0.000000000
    -8.308096641  4.826278933  0.000000000    -0.059999741  0.103913670  0.000000000
     0.000000000  0.000000000 30.000000000     0.000000000  0.000000000  0.033333333

  length of vectors
     9.564358631  9.608196404 30.000000000     0.120541725  0.119991748  0.033333333

 FORCES acting on ions
    electron-ion (+dipol)            ewald-force                    non-local-force                 convergence-correction
   -.120E+02 0.207E+02 -.139E+02   0.127E+02 -.220E+02 0.138E+02   -.767E+00 0.133E+01 0.171E+00   0.154E-01 -.150E-01 -.342E-01
   -.120E+02 0.207E+02 -.139E+02   0.127E+02 -.220E+02 0.138E+02   -.770E+00 0.133E+01 0.172E+00   0.350E-01 0.315E-02 -.374E-01
   -.119E+02 0.207E+02 -.139E+02   0.127E+02 -.220E+02 0.138E+02   -.768E+00 0.133E+01 0.172E+00   -.252E-01 -.321E-01 -.371E-01
   -.691E+01 0.121E+02 -.771E+01   0.678E+01 -.119E+02 0.778E+01   0.123E+00 -.217E+00 -.782E-01   0.126E-01 -.302E-01 0.158E-02
   -.693E+01 0.122E+02 -.772E+01   0.675E+01 -.119E+02 0.779E+01   0.119E+00 -.216E+00 -.796E-01   0.595E-01 -.476E-01 0.533E-02
   -.717E+01 0.121E+02 -.773E+01   0.702E+01 -.118E+02 0.780E+01   0.129E+00 -.211E+00 -.795E-01   0.186E-01 -.792E-01 0.626E-02
   0.178E+02 -.308E+02 0.235E+02   -.182E+02 0.315E+02 -.232E+02   0.417E+00 -.722E+00 -.314E+00   -.142E-01 0.514E-01 0.240E-01
   0.178E+02 -.308E+02 0.234E+02   -.182E+02 0.315E+02 -.232E+02   0.417E+00 -.721E+00 -.313E+00   -.381E-01 0.427E-01 0.235E-01
   0.178E+02 -.308E+02 0.234E+02   -.182E+02 0.316E+02 -.231E+02   0.415E+00 -.720E+00 -.312E+00   -.152E-01 0.227E-01 0.267E-01
   -.153E+01 0.248E+01 0.488E+03   0.107E+01 -.182E+01 -.493E+03   0.443E+00 -.771E+00 0.478E+01   0.139E-01 0.115E+00 0.873E-01
   0.951E+01 -.165E+02 -.497E+03   -.964E+01 0.167E+02 0.502E+03   0.183E+00 -.320E+00 -.513E+01   -.518E-01 0.949E-01 -.692E-01
   -.956E+01 0.165E+02 0.588E+03   0.105E+02 -.183E+02 -.591E+03   -.100E+01 0.175E+01 0.304E+01   0.441E-01 -.496E-01 0.215E-01
   -.121E+02 0.209E+02 -.588E+03   0.126E+02 -.219E+02 0.592E+03   -.574E+00 0.997E+00 -.317E+01   0.935E-01 -.190E-02 -.698E-01
   0.111E+02 -.193E+02 0.629E+03   -.114E+02 0.197E+02 -.633E+03   0.267E+00 -.462E+00 0.399E+01   -.570E-02 0.107E-01 -.230E-01
   0.406E+01 -.697E+01 -.622E+03   -.459E+01 0.788E+01 0.626E+03   0.526E+00 -.903E+00 -.358E+01   -.276E-02 0.767E-02 0.372E-02
   -.140E+01 0.252E+01 0.488E+03   0.106E+01 -.180E+01 -.493E+03   0.447E+00 -.769E+00 0.478E+01   -.101E+00 0.564E-01 0.951E-01
   0.953E+01 -.164E+02 -.497E+03   -.968E+01 0.167E+02 0.502E+03   0.183E+00 -.318E+00 -.513E+01   -.375E-01 0.322E-01 -.346E-01
   -.965E+01 0.167E+02 0.588E+03   0.106E+02 -.183E+02 -.592E+03   -.100E+01 0.174E+01 0.305E+01   0.739E-01 -.122E+00 0.977E-01
   -.121E+02 0.210E+02 -.588E+03   0.127E+02 -.219E+02 0.592E+03   -.574E+00 0.997E+00 -.317E+01   -.321E-01 -.796E-01 -.802E-01
   0.112E+02 -.193E+02 0.629E+03   -.114E+02 0.197E+02 -.633E+03   0.266E+00 -.461E+00 0.399E+01   -.300E-02 0.104E-02 -.272E-01
   0.404E+01 -.702E+01 -.622E+03   -.458E+01 0.795E+01 0.626E+03   0.520E+00 -.903E+00 -.358E+01   0.886E-02 -.141E-01 -.774E-03
   -.145E+01 0.253E+01 0.488E+03   0.103E+01 -.179E+01 -.493E+03   0.444E+00 -.770E+00 0.478E+01   -.349E-01 0.401E-01 0.441E-01
   0.945E+01 -.164E+02 -.497E+03   -.963E+01 0.167E+02 0.502E+03   0.184E+00 -.317E+00 -.513E+01   -.597E-02 0.378E-01 -.286E-01
   -.952E+01 0.165E+02 0.588E+03   0.105E+02 -.182E+02 -.591E+03   -.101E+01 0.175E+01 0.304E+01   0.238E-01 -.738E-01 0.320E-01
   -.120E+02 0.209E+02 -.588E+03   0.126E+02 -.219E+02 0.592E+03   -.576E+00 0.995E+00 -.317E+01   0.269E-03 -.253E-01 -.114E-01
   0.111E+02 -.193E+02 0.629E+03   -.113E+02 0.198E+02 -.633E+03   0.267E+00 -.460E+00 0.399E+01   0.144E-02 0.820E-03 -.272E-01
   0.400E+01 -.696E+01 -.622E+03   -.452E+01 0.787E+01 0.626E+03   0.522E+00 -.908E+00 -.358E+01   -.376E-02 0.240E-02 0.321E-02
   0.115E+01 -.199E+01 0.868E+00   -.497E-13 -.506E-13 -.341E-12   -.118E+01 0.204E+01 -.868E+00   0.299E-01 -.519E-01 -.852E-02

 POSITION                                       TOTAL-FORCE (eV/Angst)
     -0.15680      3.45928      0.05305         0.006618     -0.012042      0.006879
      5.36508      6.64791      0.05290         0.000875     -0.006434      0.007908
      2.60409      5.05370      0.05296         0.005649     -0.004510      0.007374
     -5.57748      3.28524      0.02237         0.002334     -0.002461     -0.005226
     -2.81620      4.87972      0.02243        -0.002119      0.000735     -0.006741
     -0.05773      6.47252      0.02246        -0.000387      0.002099     -0.006800
      0.15851     -0.27529     -0.07206        -0.004208      0.006219     -0.010993
      2.91944      1.31904     -0.07199        -0.003298      0.006617     -0.010671
      5.68018      2.91343     -0.07182        -0.003048      0.005395     -0.009670
     -0.93397      1.61708     28.71435        -0.004058      0.003177     -0.003128
      0.91206      1.60769      1.30506         0.002587     -0.004592      0.010127
     -3.69031      3.20391     28.42959         0.009084     -0.014515      0.008068
     -1.85069      3.20519      1.60092        -0.009178      0.009808      0.015599
     -6.44208      4.78183     28.27059         0.003294     -0.005654     -0.013034
     -4.60650      4.79078      1.67578        -0.004674      0.009311     -0.006149
      1.82699      3.21136     28.71442        -0.000611      0.004770     -0.003198
      3.67281      3.20207      1.30532         0.001092     -0.002455      0.008810
     -0.92949      4.79772     28.42908         0.006746     -0.011816      0.006017
      0.90999      4.79925      1.60091        -0.004166      0.012640      0.015779
     -3.68121      6.37634     28.27062         0.003521     -0.006282     -0.012742
     -1.84612      6.38516      1.67654        -0.005262      0.009094     -0.007261
      4.58784      4.80563     28.71446        -0.002737      0.005275     -0.001922
      6.43394      4.79634      1.30519         0.001463     -0.002124      0.008624
      1.83121      6.39210     28.42996         0.007815     -0.014668      0.007897
      3.67119      6.39359      1.60088        -0.005488      0.010397      0.013812
     -0.92059      7.97022     28.27060         0.003765     -0.006535     -0.012815
      0.91512      7.97873      1.67541        -0.005608      0.008549     -0.006542
    total drift:                                0.003080     -0.006189     -0.007658

  FREE ENERGIE OF THE ION-ELECTRON SYSTEM (eV)
  free  energy   TOTEN  =      -192.44216436 eV

  energy  without entropy=     -192.30224262  energy(sigma->0) =     -192.37220349

 d Force =-0.2956240E-03[-0.286E-03,-0.305E-03]  d Energy =-0.3279055E-03 0.323E-04
 d Force =-0.7631339E+00[-0.758E+00,-0.768E+00]  d Ewald  =-0.1059245E+02 0.983E+01

 Quasi-Newton relaxation of ions (Broydens 2nd method)
  g(Force)  = 0.225E-03   g(Stress)= 0.439E-04

 retain information from N=  2 steps
 eigenvalues of (default step * inverse Hessian matrix)
  average eigenvalue of G=   0.2907
 eigenvalue spectrum of G is  0.2907  0.2907

 reached required accuracy - stopping structural energy minimisation