 vasp.5.4.1 05Feb16 (build Jul 05 2020 17:13:04) complex

 executed on           IFC91_ompi date 2024.07.24  16:15:18

 INCAR:
 POTCAR:   PAW_PBE V 08Apr2002
 POTCAR:   PAW_PBE Mo 08Apr2002
 POTCAR:   PAW_PBE W 08Apr2002
 POTCAR:    PAW_PBE S 17Jan2003

 POTCAR:   PAW_PBE V 08Apr2002
   VRHFIN =V: p6 d4 s1

   TITEL  = PAW_PBE V 08Apr2002
   POMASS =   50.941; ZVAL   =    5.000    mass and valenz
   ENMAX  =  192.543; ENMIN  =  144.408 eV
   QCUT   =   -3.762; QGAM   =    7.524    optimization parameters

   Description
     l     E      TYP  RCUT    TYP  RCUT
     2   .000     23  2.700
     2   .000     23  2.700
     0   .000     23  2.700
     0  2.000     23  2.700
     1   .000     23  2.700
     1  2.000     23  2.700
     3   .000      7   .000

 POTCAR:   PAW_PBE Mo 08Apr2002
   VRHFIN =Mo: 4p5s4d

[...]

 POTCAR:   PAW_PBE W 08Apr2002
   VRHFIN =W : 6s5d

   TITEL  = PAW_PBE W 08Apr2002
   POMASS =  183.850; ZVAL   =    6.000    mass and valenz
   ENMAX  =  223.057; ENMIN  =  167.293 eV
   QCUT   =   -4.049; QGAM   =    8.098    optimization parameters

[...]

 POTCAR:    PAW_PBE S 17Jan2003
   VRHFIN =S : s2p4

   TITEL  = PAW_PBE S 17Jan2003
   POMASS =   32.066; ZVAL   =    6.000    mass and valenz
   ENMAX  =  280.000; ENMIN  =  194.016 eV
   QCUT   =   -4.360; QGAM   =    8.721    optimization parameters

   Description
     l     E      TYP  RCUT    TYP  RCUT
     0   .000     23  1.900
     0   .000     23  1.900
     1   .000     23  1.900
     1   .000     23  1.900
     2   .000     23  1.900

 PAW_PBE V 08Apr2002                    :
 PAW_PBE Mo 08Apr2002                   :
 PAW_PBE W 08Apr2002                    :
  PAW_PBE S 17Jan2003                   :

 POSCAR: crystal structure from VMoWS2 with Hexag
  positions in cartesian coordinates
 exchange correlation table for  LEXCH =        8
   RHO(1)=    0.500       N(1)  =     2000
   RHO(2)=  100.500       N(2)  =     4000

 ion  position               nearest neighbor table
   1  0.667  0.333  0.000-  19 2.34  22 2.34  25 2.36  24 2.36  17 2.36  16 2.36
   2  0.333  0.333  0.000-  13 2.34  16 2.34  19 2.36  18 2.36  11 2.36  10 2.36
   3  0.667  0.667  0.000-  21 2.34  24 2.34  27 2.36  26 2.36  19 2.36  18 2.36
   4  0.333  0.667  0.000-  15 2.34  18 2.34  20 2.36  21 2.36  13 2.36  12 2.36   6 3.34   5 3.34
                             9 3.36   8 3.36
   5  0.000  0.667  0.000-  27 2.34  12 2.34  14 2.36  15 2.36  24 2.36  25 2.36   7 3.34   8 3.34
                             4 3.34   6 3.36
   6  0.333  0.000  0.000-  11 2.34  20 2.34  17 2.36  16 2.36  15 2.36  14 2.36   4 3.34   9 3.34
                             7 3.34   5 3.36
   7  0.000  0.000  0.000-  23 2.34  14 2.34  11 2.36  10 2.36  27 2.36  26 2.36   9 3.34   5 3.34
                             8 3.34   6 3.34
   8  1.000  0.333  0.000-  25 2.34  10 2.34  13 2.36  12 2.36  22 2.36  23 2.36   5 3.34   7 3.34
                             9 3.36   4 3.36
   9  0.667  0.000  0.000-  17 2.34  26 2.34  23 2.36  22 2.36  21 2.36  20 2.36   7 3.34   6 3.34
                             8 3.36   4 3.36
  10  0.111  0.222  0.955-   8 2.34   7 2.36   2 2.36
  11  0.222  0.111  0.045-   6 2.34   7 2.36   2 2.36
  12  0.111  0.556  0.955-   5 2.34   8 2.36   4 2.36
  13  0.222  0.444  0.045-   2 2.34   8 2.36   4 2.36
  14  0.111  0.889  0.955-   7 2.34   5 2.36   6 2.36
  15  0.222  0.777  0.045-   4 2.34   5 2.36   6 2.36
  16  0.444  0.222  0.955-   2 2.34   6 2.36   1 2.36
  17  0.556  0.111  0.045-   9 2.34   6 2.36   1 2.36
  18  0.444  0.556  0.955-   4 2.34   2 2.36   3 2.36
  19  0.556  0.444  0.045-   1 2.34   2 2.36   3 2.36
  20  0.444  0.889  0.955-   6 2.34   4 2.36   9 2.36
  21  0.556  0.777  0.045-   3 2.34   4 2.36   9 2.36
  22  0.777  0.222  0.955-   1 2.34   9 2.36   8 2.36
  23  0.889  0.111  0.045-   7 2.34   9 2.36   8 2.36
  24  0.777  0.556  0.955-   3 2.34   1 2.36   5 2.36
  25  0.889  0.444  0.045-   8 2.34   1 2.36   5 2.36
  26  0.777  0.889  0.955-   9 2.34   3 2.36   7 2.36
  27  0.889  0.777  0.045-   5 2.34   3 2.36   7 2.36

IMPORTANT INFORMATION: All symmetrisations will be switched off!
NOSYMM: (Re-)initialisation of all symmetry stuff for point group C_1.

 KPOINTS: K-POINTS 	#supercell of CrS2 in hexagona

Automatic generation of k-mesh.
Space group operators:
 irot       det(A)        alpha          n_x          n_y          n_z        tau_x        tau_y        tau_z
    1     1.000000     0.000000     1.000000     0.000000     0.000000     0.000000     0.000000     0.000000

 Subroutine IBZKPT returns following result:

 Found     34 irreducible k-points:

 Following reciprocal coordinates:
            Coordinates               Weight
  0.000000  0.000000  0.000000      1.000000
  0.125000  0.000000  0.000000      2.000000
  0.250000  0.000000  0.000000      2.000000
  0.375000  0.000000  0.000000      2.000000
  0.500000  0.000000  0.000000      1.000000
  0.000000  0.125000  0.000000      2.000000
  0.125000  0.125000  0.000000      2.000000
  0.250000  0.125000  0.000000      2.000000
  0.375000  0.125000  0.000000      2.000000
  0.500000  0.125000  0.000000      2.000000
 -0.375000  0.125000  0.000000      2.000000
 -0.250000  0.125000  0.000000      2.000000
 -0.125000  0.125000  0.000000      2.000000
  0.000000  0.250000  0.000000      2.000000
  0.125000  0.250000  0.000000      2.000000
  0.250000  0.250000  0.000000      2.000000
  0.375000  0.250000  0.000000      2.000000
  0.500000  0.250000  0.000000      2.000000
 -0.375000  0.250000  0.000000      2.000000
 -0.250000  0.250000  0.000000      2.000000
 -0.125000  0.250000  0.000000      2.000000
 -0.000000  0.375000  0.000000      2.000000
  0.125000  0.375000  0.000000      2.000000
  0.250000  0.375000  0.000000      2.000000
  0.375000  0.375000  0.000000      2.000000
  0.500000  0.375000  0.000000      2.000000
 -0.375000  0.375000  0.000000      2.000000
 -0.250000  0.375000  0.000000      2.000000
 -0.125000  0.375000  0.000000      2.000000
  0.000000  0.500000  0.000000      1.000000
  0.125000  0.500000  0.000000      2.000000
  0.250000  0.500000  0.000000      2.000000
  0.375000  0.500000  0.000000      2.000000
  0.500000  0.500000  0.000000      1.000000

 Following cartesian coordinates:
            Coordinates               Weight
  0.000000  0.000000  0.000000      1.000000
  0.007209  0.012401  0.000000      2.000000
  0.014418  0.024802  0.000000      2.000000
  0.021626  0.037202  0.000000      2.000000
  0.028835  0.049603  0.000000      1.000000
 -0.007209  0.012401  0.000000      2.000000
  0.000000  0.024802  0.000000      2.000000
  0.007209  0.037202  0.000000      2.000000
  0.014418  0.049603  0.000000      2.000000
  0.021626  0.062004  0.000000      2.000000
 -0.028835 -0.024802  0.000000      2.000000
 -0.021626 -0.012401  0.000000      2.000000
 -0.014418  0.000000  0.000000      2.000000
 -0.014418  0.024802  0.000000      2.000000
 -0.007209  0.037202  0.000000      2.000000
  0.000000  0.049603  0.000000      2.000000
  0.007209  0.062004  0.000000      2.000000
  0.014418  0.074405  0.000000      2.000000
 -0.036044 -0.012401  0.000000      2.000000
 -0.028835  0.000000  0.000000      2.000000
 -0.021626  0.012401  0.000000      2.000000
 -0.021626  0.037202  0.000000      2.000000
 -0.014418  0.049603  0.000000      2.000000
 -0.007209  0.062004  0.000000      2.000000
  0.000000  0.074405  0.000000      2.000000
  0.007209  0.086806  0.000000      2.000000
 -0.043253  0.000000  0.000000      2.000000
 -0.036044  0.012401  0.000000      2.000000
 -0.028835  0.024802  0.000000      2.000000
 -0.028835  0.049603  0.000000      1.000000
 -0.021626  0.062004  0.000000      2.000000
 -0.014418  0.074405  0.000000      2.000000
 -0.007209  0.086806  0.000000      2.000000
  0.000000  0.099206  0.000000      1.000000

 I would recommend the setting:
   dimension x,y,z NGX =    41 NGY =   41 NGZ =  123
 SYSTEM =  unknown system
 POSCAR =  crystal structure from VMoWS2 with Hexag

 Startparameter for this run:
   NWRITE =      2    write-flag & timer
   PREC   = normal    normal or accurate (medium, high low for compatibility)
   ISTART =      0    job   : 0-new  1-cont  2-samecut
   ICHARG =      2    charge: 1-file 2-atom 10-const
   ISPIN  =      1    spin polarized calculation?
   LNONCOLLINEAR =      F non collinear calculations
   LSORBIT =      F    spin-orbit coupling
   INIWAV =      1    electr: 0-lowe 1-rand  2-diag
   LASPH  =      F    aspherical Exc in radial PAW
   METAGGA=      F    non-selfconsistent MetaGGA calc.

 Electronic Relaxation 1
   ENCUT  =  280.0 eV  20.58 Ry    4.54 a.u.  13.68 13.68 40.93*2*pi/ulx,y,z
   ENINI  =  280.0     initial cutoff
   ENAUG  =  373.4 eV  augmentation charge cutoff
   NELM   =     60;   NELMIN=  2; NELMDL= -5     # of ELM steps
   EDIFF  = 0.1E-03   stopping-criterion for ELM
   LREAL  =      F    real-space projection
   NLSPLINE    = F    spline interpolate recip. space projectors
   LCOMPAT=      F    compatible to vasp.4.4
   GGA_COMPAT  = T    GGA compatible to vasp.4.4-vasp.4.6
   LMAXPAW     = -100 max onsite density
   LMAXMIX     =    2 max onsite mixed and CHGCAR
   VOSKOWN=      0    Vosko Wilk Nusair interpolation
   ROPT   =    0.00000   0.00000   0.00000   0.00000
 Ionic relaxation
   EDIFFG = 0.1E-02   stopping-criterion for IOM
   NSW    =    100    number of steps for IOM
   NBLOCK =      1;   KBLOCK =    100    inner block; outer block
   IBRION =      1    ionic relax: 0-MD 1-quasi-New 2-CG
   NFREE  =      0    steps in history (QN), initial steepest desc. (CG)
   ISIF   =      3    stress and relaxation
   IWAVPR =     11    prediction:  0-non 1-charg 2-wave 3-comb
   ISYM   =      0    0-nonsym 1-usesym 2-fastsym
   LCORR  =      T    Harris-Foulkes like correction to forces

   POTIM  = 0.5000    time-step for ionic-motion
   TEIN   =    0.0    initial temperature
   TEBEG  =    0.0;   TEEND  =   0.0 temperature during run
   SMASS  =  -3.00    Nose mass-parameter (am)
   estimated Nose-frequenzy (Omega)   =  0.10E-29 period in steps =****** mass=  -0.230E-26a.u.
   SCALEE = 1.0000    scale energy and forces
   NPACO  =    256;   APACO  = 16.0  distance and # of slots for P.C.
   PSTRESS=    0.0 pullay stress

  Mass of Ions in am
   POMASS =  50.94 95.94183.85 32.07
  Ionic Valenz
   ZVAL   =   5.00  6.00  6.00  6.00
  Atomic Wigner-Seitz radii
  virtual crystal weights
   VCA    =   1.00  1.00  1.00  1.00
   NELECT =     159.0000    total number of electrons
   NUPDOWN=      -1.0000    fix difference up-down

 DOS related values:
   EMIN   =  10.00;   EMAX   =-10.00  energy-range for DOS
   EFERMI =   0.00
   ISMEAR =     0;   SIGMA  =   0.20  broadening in eV -4-tet -1-fermi 0-gaus

 Electronic relaxation 2 (details)
   IALGO  =     38    algorithm
   LDIAG  =      T    sub-space diagonalisation (order eigenvalues)
   LSUBROT=      F    optimize rotation matrix (better conditioning)
   TURBO    =      0    0=normal 1=particle mesh
   IRESTART =      0    0=no restart 2=restart with 2 vectors
   NREBOOT  =      0    no. of reboots
   NMIN     =      0    reboot dimension
   EREF     =   0.00    reference energy to select bands
[...]
      4.81100      5.03900     28.66200        -0.566791      0.002592     -2.125137
      6.74900      5.03900      1.33800        -0.140971      0.003290      2.802672
      1.92100      6.71900     28.66200        -0.326866     -0.676543     -1.375664
      3.85900      6.71900      1.33800        -0.379666     -0.691435      2.157913
     -0.96900      8.39900     28.66200         0.447556     -0.543127     -2.165996
      0.96900      8.39900      1.33800        -0.604435     -0.557147      2.154337
    total drift:                                0.000876     -0.000480      0.001143

  FREE ENERGIE OF THE ION-ELECTRON SYSTEM (eV)
  free  energy   TOTEN  =      -186.81241580 eV

  energy  without entropy=     -186.46794701  energy(sigma->0) =     -186.64018141

 Quasi-Newton relaxation of ions (Broydens 2nd method)
  g(Force)  = 0.476E+01   g(Stress)= 0.364E+00

 Reset! Starting new Quasi-Newton update for ions

[...]

 d Force = 0.2428410E+01[ 0.931E-01, 0.476E+01]  d Energy = 0.1848054E+01 0.580E+00
 d Force = 0.9590229E+03[ 0.941E+03, 0.977E+03]  d Ewald  = 0.2539558E+04-0.158E+04

[...]

 retain information from N=  1 steps
 eigenvalues of (default step * inverse Hessian matrix)
  average eigenvalue of G=   0.2444
 eigenvalue spectrum of G is  0.2444

[...]

 d Force = 0.5072705E-01[ 0.494E-01, 0.521E-01]  d Energy = 0.1121569E+01-0.107E+01
 d Force =-0.4239091E+01[-0.434E+01,-0.414E+01]  d Ewald  =-0.1936875E+04 0.193E+04

[...]

 d Force = 0.5340026E+00[ 0.474E+00, 0.594E+00]  d Energy = 0.1059677E+01-0.526E+00
 d Force = 0.4118306E+03[ 0.422E+03, 0.402E+03]  d Ewald  =-0.1545677E+04 0.196E+04

[...]

 d Force = 0.1259568E+00[ 0.126E+00, 0.126E+00]  d Energy = 0.1287595E+00-0.280E-02
 d Force =-0.2634467E+02[-0.264E+02,-0.263E+02]  d Ewald  = 0.1542959E+03-0.181E+03

[...]

 d Force = 0.7375067E-01[ 0.717E-01, 0.758E-01]  d Energy = 0.7377710E-01-0.264E-04
 d Force = 0.2299395E+02[ 0.230E+02, 0.230E+02]  d Ewald  =-0.8194720E+01 0.312E+02

[...]

 d Force =-0.4178117E-03[-0.590E-03,-0.246E-03]  d Energy =-0.2859509E-03-0.132E-03
 d Force = 0.7036968E+01[ 0.704E+01, 0.704E+01]  d Ewald  = 0.2962046E+02-0.226E+02

[...]

 d Force =-0.7411570E-04[-0.705E-04,-0.778E-04]  d Energy =-0.1859386E-03 0.112E-03
 d Force = 0.4307577E+00[ 0.431E+00, 0.431E+00]  d Ewald  = 0.2182205E+01-0.175E+01

[...]

 d Force = 0.2342730E-03[ 0.167E-03, 0.302E-03]  d Energy = 0.2743525E-03-0.401E-04
 d Force = 0.1031514E+01[ 0.103E+01, 0.103E+01]  d Ewald  = 0.2180398E+02-0.208E+02

[...]

 d Force =-0.1021095E-04[-0.383E-04, 0.178E-04]  d Energy = 0.5009249E-05-0.152E-04
 d Force = 0.2848048E-01[ 0.282E-01, 0.287E-01]  d Ewald  = 0.7925745E+01-0.790E+01

[...]

 d Force = 0.1580709E-02[ 0.172E-02, 0.144E-02]  d Energy = 0.1520813E-02 0.599E-04
 d Force =-0.2936584E+01[-0.294E+01,-0.294E+01]  d Ewald  = 0.2511507E+01-0.545E+01

[...]

 d Force =-0.2741212E-02[-0.203E-02,-0.345E-02]  d Energy =-0.2717401E-02-0.238E-04
 d Force = 0.3713371E+01[ 0.372E+01, 0.371E+01]  d Ewald  =-0.2893104E+01 0.661E+01

[...]

 d Force =-0.8967834E-03[-0.495E-03,-0.130E-02]  d Energy =-0.1019642E-02 0.123E-03
 d Force = 0.7704258E+00[ 0.773E+00, 0.768E+00]  d Ewald  =-0.7132176E+01 0.790E+01

[...]

 FEWALD executed in parallel

[...]

 eigenvalue-minimisations  : 12160
 total energy-change (2. order) :-0.3655249E-02  (-0.8315086E-03)
 number of electron     158.9999646 magnetization
 augmentation part       -4.1789996 magnetization

[...]

 Broyden mixing:
  rms(total) = 0.11219E-01    rms(broyden)= 0.11166E-01
  rms(prec ) = 0.12291E-01
  weight for this iteration     100.00

 eigenvalues of (default mixing * dielectric matrix)
  average eigenvalue GAMMA=   0.2307
  0.3367  0.1248

[...]

----------------------------------------- Iteration   24(   4)  ---------------------------------------

 eigenvalue-minimisations  :  8600
 total energy-change (2. order) : 0.3026020E-04  (-0.4321086E-04)
 number of electron     158.9999646 magnetization
 augmentation part       -4.2136022 magnetization

 Free energy of the ion-electron system (eV)
  alpha Z        PSCENC =        88.17660050
  Ewald energy   TEWEN  =     43805.46005433
  -Hartree energ DENC   =    -49811.00937159
  -exchange      EXHF   =         0.00000000
  -V(xc)+E(xc)   XCENC  =      -233.80131673
  PAW double counting   =      4093.40590643    -3509.52351428
  entropy T*S    EENTRO =        -0.21304920
  eigenvalues    EBANDS =     -1386.14921755
  atomic energy  EATOM  =      6761.44252427
  Solvation  Ediel_sol  =         0.00000000
  free energy    TOTEN  =      -192.21138381 eV

  energy without entropy =     -191.99833461  energy(sigma->0) =     -192.10485921

 average (electrostatic) potential at core
  the test charge radii are     1.2064  1.2296  1.1823  0.9698
  (the norm of the test charge is              1.0000)
       1 -49.9519       2 -49.9526       3 -49.9519       4 -46.9425       5 -46.9443
       6 -46.9439       7 -49.5877       8 -49.5853       9 -49.5852      10 -94.8794
      11 -95.0584      12 -95.1976      13 -95.0570      14 -95.1992      15 -95.0897
      16 -94.8017      17 -95.0607      18 -94.7973      19 -94.7546      20 -95.1971
      21 -95.0576      22 -94.8802      23 -94.5155      24 -94.8040      25 -95.0610
      26 -94.8788      27 -95.0594

 E-fermi :  -3.1284     XC(G=0):  -2.5382     alpha+bet : -2.3321

[...]

 k-point    34 :       0.5000    0.5000    0.0000
  band No.  band energies     occupation
      1     -17.4331      2.00000
      2     -17.3389      2.00000
      3     -16.7301      2.00000
      4     -16.6953      2.00000
      5     -16.5220      2.00000
      6     -16.3493      2.00000
      7     -16.2448      2.00000
      8     -16.1999      2.00000
      9     -16.0339      2.00000
     10     -16.0074      2.00000
     11     -15.9190      2.00000
     12     -15.9068      2.00000
     13     -15.7819      2.00000
     14     -15.7352      2.00000
     15     -15.6041      2.00000
     16     -15.5916      2.00000
     17     -15.5147      2.00000
     18     -15.4871      2.00000
     19      -9.7618      2.00000
     20      -9.2863      2.00000
     21      -9.1415      2.00000
     22      -9.0471      2.00000
     23      -8.9003      2.00000
     24      -8.7780      2.00000
     25      -8.5588      2.00000
     26      -8.5329      2.00000
     27      -8.4037      2.00000
     28      -8.3184      2.00000
     29      -8.2826      2.00000
     30      -8.1821      2.00000
     31      -8.0934      2.00000
     32      -8.0186      2.00000
     33      -7.8902      2.00000
     34      -7.8697      2.00000
     35      -7.7530      2.00000
     36      -7.6235      2.00000
     37      -7.4831      2.00000
     38      -7.4346      2.00000
     39      -7.4313      2.00000
     40      -7.1984      2.00000
     41      -7.1338      2.00000
     42      -7.0863      2.00000
     43      -6.9909      2.00000
     44      -6.9350      2.00000
     45      -6.7669      2.00000
     46      -6.7228      2.00000
     47      -6.7031      2.00000
     48      -6.6271      2.00000
     49      -6.5271      2.00000
     50      -6.4270      2.00000
     51      -6.3881      2.00000
     52      -6.3668      2.00000
     53      -6.3402      2.00000
     54      -6.2728      2.00000
     55      -6.1808      2.00000
     56      -6.0388      2.00000
     57      -6.0357      2.00000
     58      -6.0196      2.00000
     59      -5.9484      2.00000
     60      -5.8785      2.00000
[...]
    106      -0.5142      0.00000
    107      -0.2536      0.00000
    108      -0.2012      0.00000
    109      -0.0904      0.00000
    110       0.2833      0.00000
    111       0.4200      0.00000
    112       0.6578      0.00000
    113       0.9200      0.00000
    114       0.9919      0.00000
    115       1.0785      0.00000
    116       1.2072      0.00000
    117       1.3951      0.00000
    118       2.2082      0.00000
    119       2.2370      0.00000
    120       2.3540      0.00000

 soft charge-density along one line, spin component           1
         0         1         2         3         4         5         6         7         8         9
 total charge-density along one line

------------------------ aborting loop because EDIFF is reached ----------------------------------------

  FORCE on cell =-STRESS in cart. coord.  units (eV):
  Direction    XX          YY          ZZ          XY          YZ          ZX
  Alpha Z    88.17660    88.17660    88.17660
  Ewald   48742.44039 48743.14031-53680.13764    -0.00820    -0.07580     0.06675
  Hartree 49456.80510 49457.27072-49103.63749     0.00029    -0.01773    -0.00603
  E(xc)    -609.98265  -609.99232  -617.06012     0.00103     0.00258     0.00228
  Local  ************************100225.56931     0.01283     0.10131    -0.05180
  n-local  1214.97891  1214.89492  1250.39812    -0.01299    -0.00519     0.03607
  augment  -212.55530  -212.50745  -215.35355     0.00244    -0.00145    -0.01037
  Kinetic  2012.96014  2013.06461  2049.85733     0.00276    -0.00627    -0.05300
  Fock        0.00000     0.00000     0.00000     0.00000     0.00000     0.00000
  Total      -0.01751     0.00857    -2.18744    -0.00184    -0.00255    -0.01610
  in kB      -0.01155     0.00565    -1.44349    -0.00121    -0.00168    -0.01062

 VOLUME and BASIS-vectors are now :
  energy-cutoff  :      280.00
  volume of cell :     2427.92
      direct lattice vectors                 reciprocal lattice vectors
     8.372157293  4.833628418  0.000000000     0.059719841  0.103445291  0.000000000
    -8.371887416  4.833161368  0.000000000    -0.059725612  0.103448626  0.000000000
     0.000000000  0.000000000 30.000000000     0.000000000  0.000000000  0.033333333

  length of vectors
     9.667315109  9.666847868 30.000000000     0.119446170  0.119451944  0.033333333

 FORCES acting on ions
    electron-ion (+dipol)            ewald-force                    non-local-force                 convergence-correction
   -.409E+00 0.701E-01 0.891E+01   -.749E-01 -.740E-01 -.923E+01   0.529E+00 0.873E-02 0.341E+00   -.605E-01 -.208E-02 -.832E-02
   0.526E+00 0.435E+00 0.923E+01   -.255E+00 -.147E-01 -.957E+01   -.242E+00 -.490E+00 0.337E+00   -.179E-01 0.740E-01 0.503E-02
   0.584E+00 -.394E+00 0.918E+01   -.314E+00 -.328E-01 -.952E+01   -.232E+00 0.490E+00 0.337E+00   -.216E-01 -.693E-01 0.356E-02
   -.324E+02 0.153E-01 -.128E+01   0.317E+02 -.186E-01 0.146E+01   0.547E+00 -.291E-02 -.167E+00   0.769E-01 0.396E-02 -.444E-02
   0.161E+02 0.277E+02 -.146E+01   -.158E+02 -.271E+02 0.164E+01   -.291E+00 -.483E+00 -.172E+00   -.221E-01 -.273E-01 -.673E-02
   0.162E+02 -.277E+02 -.141E+01   -.159E+02 0.272E+02 0.159E+01   -.291E+00 0.478E+00 -.170E+00   -.166E-01 0.261E-01 -.686E-02
   0.347E+02 -.131E-01 -.828E+01   -.352E+02 0.215E-01 0.865E+01   0.514E+00 0.153E-03 -.367E+00   -.311E-02 -.665E-02 -.129E-02
   -.176E+02 0.300E+02 -.829E+01   0.178E+02 -.305E+02 0.865E+01   -.253E+00 0.436E+00 -.369E+00   0.229E-01 0.204E-01 -.208E-02
   -.176E+02 -.300E+02 -.827E+01   0.178E+02 0.305E+02 0.863E+01   -.252E+00 -.435E+00 -.370E+00   0.290E-01 -.232E-01 -.292E-02
   0.765E+01 0.131E+02 0.529E+03   -.715E+01 -.123E+02 -.534E+03   -.527E+00 -.916E+00 0.447E+01   0.357E-01 0.725E-01 0.192E-01
   0.186E+02 -.175E+02 -.571E+03   -.193E+02 0.171E+02 0.574E+03   0.803E+00 0.414E+00 -.375E+01   -.438E-01 0.683E-01 -.223E-01
   -.959E+01 0.164E+02 0.621E+03   0.101E+02 -.174E+02 -.624E+03   -.568E+00 0.960E+00 0.356E+01   0.167E-01 -.768E-02 -.157E-01
   -.246E+02 0.714E+01 -.570E+03   0.246E+02 -.806E+01 0.574E+03   -.368E-01 0.907E+00 -.375E+01   0.826E-01 0.115E-01 -.402E-01
   0.190E+02 -.140E-01 0.620E+03   -.201E+02 0.184E-01 -.624E+03   0.112E+01 -.236E-02 0.357E+01   -.166E-01 -.211E-02 -.199E-01
   0.155E-02 0.295E-02 -.634E+03   0.182E-02 0.321E-03 0.638E+03   -.883E-02 -.358E-02 -.349E+01   0.327E-02 -.481E-03 0.161E-01
   0.425E+01 -.720E+01 0.532E+03   -.456E+01 0.782E+01 -.535E+03   0.401E+00 -.673E+00 0.339E+01   -.786E-01 0.445E-01 0.345E-01
   0.597E+01 -.247E+02 -.571E+03   -.517E+01 0.252E+02 0.574E+03   -.773E+00 -.484E+00 -.374E+01   -.247E-01 0.256E-01 0.312E-02
   -.832E+01 -.517E-01 0.531E+03   0.899E+01 0.310E-01 -.535E+03   -.777E+00 0.898E-02 0.341E+01   0.906E-01 0.123E-01 0.916E-01
   0.216E+00 0.129E-01 -.521E+03   -.167E+00 -.270E-01 0.525E+03   0.111E-01 0.434E-02 -.402E+01   -.560E-01 0.104E-01 -.978E-01
   -.959E+01 -.164E+02 0.621E+03   0.101E+02 0.174E+02 -.624E+03   -.565E+00 -.961E+00 0.356E+01   0.200E-01 0.891E-02 -.145E-01
   -.247E+02 -.713E+01 -.570E+03   0.246E+02 0.805E+01 0.574E+03   -.297E-01 -.909E+00 -.375E+01   0.915E-01 -.854E-02 -.473E-01
   -.155E+02 0.206E-01 0.530E+03   0.144E+02 -.207E-01 -.534E+03   0.106E+01 0.126E-02 0.446E+01   -.252E-01 -.559E-03 -.169E-01
   -.102E+00 0.864E-02 -.464E+03   0.935E-01 -.320E-02 0.469E+03   0.137E-02 -.828E-03 -.510E+01   0.991E-02 -.439E-02 0.380E-01
   0.430E+01 0.719E+01 0.532E+03   -.460E+01 -.782E+01 -.536E+03   0.393E+00 0.678E+00 0.339E+01   -.908E-01 -.410E-01 0.422E-01
   0.591E+01 0.247E+02 -.571E+03   -.512E+01 -.252E+02 0.575E+03   -.769E+00 0.486E+00 -.374E+01   -.288E-01 -.264E-01 0.398E-02
   0.766E+01 -.131E+02 0.529E+03   -.717E+01 0.123E+02 -.534E+03   -.523E+00 0.911E+00 0.448E+01   0.408E-01 -.831E-01 0.278E-01
   0.186E+02 0.175E+02 -.571E+03   -.193E+02 -.170E+02 0.575E+03   0.801E+00 -.418E+00 -.375E+01   -.491E-01 -.793E-01 -.292E-01
   -.106E-01 -.274E-02 0.145E+01   0.249E-13 0.711E-14 0.000E+00   0.403E-01 0.637E-02 -.140E+01   -.356E-01 -.368E-02 -.513E-01

 POSITION                                       TOTAL-FORCE (eV/Angst)
      2.82116      4.83357     -0.04868        -0.014626      0.002803      0.004778
     -0.01230      3.19593     -0.04985         0.011422      0.004890      0.003806
     -0.01153      6.47006     -0.04959         0.015777     -0.005544      0.003904
     -2.98132      4.83274      0.00929        -0.021728     -0.002248      0.003759
     -5.48709      3.38371      0.00989         0.003313      0.017273      0.000837
      2.88533      1.44777      0.00974         0.002026     -0.019561      0.001605
      0.32395     -0.00067      0.02981         0.015143      0.001948     -0.005852
      5.41901      6.72428      0.02987        -0.002923      0.011607     -0.006519
      5.41894      2.94148      0.02986        -0.004150     -0.009844     -0.007031
     -0.93039      1.61018     28.56891         0.002257     -0.001046      0.007659
      0.95451      1.65473      1.55057         0.001926     -0.002578     -0.002544
     -3.74048      3.25526     28.31152        -0.003135      0.002851     -0.002829
     -1.83498      3.26514      1.54914        -0.003451      0.003424     -0.003733
     -6.47205      4.83255     28.31189         0.002239     -0.000059      0.000308
     -4.65179      4.83249      1.72496        -0.001974     -0.000792      0.007313
      1.85599      3.23099     28.57676         0.006844     -0.007839     -0.002442
      3.67038      3.22273      1.54996        -0.003770     -0.002095      0.001744
     -0.92046      4.83274     28.57808        -0.013173      0.000567      0.005930
      0.93013      4.83264      1.40729         0.004438      0.000618      0.012331
     -3.74032      6.41011     28.31146        -0.003140     -0.002963     -0.004061
     -1.83492      6.40020      1.54890        -0.003208     -0.005025     -0.001476
      4.65111      4.83290     28.56813        -0.000519      0.000572      0.004645
      6.51154      4.83290      1.22608         0.002648      0.000229     -0.026712
      1.85610      6.43452     28.57615         0.005652      0.008252     -0.007166
      3.67050      6.44280      1.55035        -0.002657      0.000860      0.003400
     -0.93023      8.05529     28.56876         0.003274      0.001477      0.006616
      0.95458      8.01082      1.55076         0.001494      0.002224      0.001732
    total drift:                               -0.005932     -0.000051     -0.007369

  FREE ENERGIE OF THE ION-ELECTRON SYSTEM (eV)
  free  energy   TOTEN  =      -192.21138381 eV

  energy  without entropy=     -191.99833461  energy(sigma->0) =     -192.10485921

 d Force = 0.2037962E-03[ 0.148E-03, 0.260E-03]  d Energy = 0.1621790E-03 0.416E-04
 d Force =-0.4443988E+01[-0.444E+01,-0.444E+01]  d Ewald  =-0.4819534E+01 0.376E+00

 Quasi-Newton relaxation of ions (Broydens 2nd method)
  g(Force)  = 0.207E-03   g(Stress)= 0.691E-06

 retain information from N=  3 steps
 eigenvalues of (default step * inverse Hessian matrix)
  average eigenvalue of G=   1.0897
 eigenvalue spectrum of G is  0.9823  0.8733  1.4134

 reached required accuracy - stopping structural energy minimisation